Element ID,stress_x,stress_y,stress_z,stress_xy,stress_xz,stress_yz,von_mises
1,-2.17e+03,-9.30e+02,-9.30e+02,-5.15e+02,-8.59e+02,0.00e+00,2.13e+03
2,-3.52e+02,-1.51e+02,-1.51e+02,-4.93e+02,-7.54e+02,0.00e+00,1.57e+03
3,-1.24e+03,-3.36e+02,-3.16e+02,-2.72e+02,-5.76e+02,-5.65e+00,1.43e+03
4,-1.04e+03,-1.98e+02,-3.77e+02,-4.04e+02,-6.23e+02,2.02e+01,1.50e+03
5,-1.18e+03,-4.44e+02,-3.75e+02,-2.88e+02,-5.90e+02,5.25e+01,1.38e+03
6,-4.04e+02,2.26e+01,4.23e+01,-1.44e+02,-2.82e+02,-5.65e+00,7.00e+02
7,-3.61e+02,9.21e+01,-8.64e+01,-1.60e+02,-3.75e+02,2.02e+01,8.11e+02
8,-5.51e+02,-1.45e+02,-2.36e+02,-1.21e+02,-3.42e+02,-2.13e+01,7.29e+02
9,-2.77e+02,-1.56e+01,-1.19e+02,-1.76e+02,-3.09e+02,-1.86e+01,6.57e+02
10,-4.41e+02,3.68e+01,-1.34e+02,-1.83e+02,-3.56e+02,2.95e+01,8.13e+02
11,-1.00e+02,4.88e+01,-4.26e+01,-5.34e+00,-7.38e+01,-2.13e+01,1.86e+02
12,-5.43e+01,7.97e+01,-2.41e+01,-2.20e+00,-2.38e+01,-1.86e+01,1.33e+02
13,-9.43e+01,5.93e+01,2.57e+00,-1.10e+01,-3.10e+01,-6.83e+01,1.88e+02
14,-6.58e+01,9.95e+01,-2.08e+01,-6.54e+00,-7.15e+01,-6.62e+01,2.25e+02
15,-2.95e+00,4.31e+01,-1.54e+01,3.88e+00,-4.49e+01,-3.80e+01,1.15e+02
16,-1.26e+03,-5.39e+02,-5.39e+02,-4.32e+02,-8.32e+02,0.00e+00,1.78e+03
17,-3.52e+02,-1.51e+02,-1.51e+02,-4.93e+02,-7.54e+02,0.00e+00,1.57e+03
18,-1.29e+03,-4.48e+02,-3.64e+02,-4.19e+02,-5.76e+02,-3.66e+01,1.52e+03
19,-2.36e+02,-1.50e+02,-2.35e+02,-4.52e+02,-6.26e+02,-1.64e+02,1.37e+03
20,-7.18e+02,-2.08e+02,-1.94e+02,-5.70e+02,-6.85e+02,-5.76e+01,1.63e+03
21,-4.52e+02,-8.97e+01,-5.86e+00,-2.90e+02,-2.82e+02,-3.66e+01,8.14e+02
22,-4.37e+01,-6.74e+01,-1.53e+02,-3.11e+02,-3.52e+02,-1.64e+02,8.67e+02
23,-3.55e+02,-5.56e+01,-2.38e+02,-2.05e+02,-2.61e+02,-1.81e+02,7.05e+02
24,-2.73e+02,-6.97e+00,-1.16e+02,-2.82e+02,-3.09e+02,-2.08e+02,8.42e+02
25,-2.97e+02,-1.64e+02,-2.06e+02,-2.42e+02,-3.09e+02,-1.46e+02,7.35e+02
26,-7.65e+01,6.38e+01,-1.19e+02,-6.82e+01,-1.01e+01,-1.81e+02,3.73e+02
27,-5.05e+01,8.84e+01,-2.03e+01,-1.08e+02,-2.38e+01,-2.08e+02,4.27e+02
28,-2.41e+01,2.23e+02,7.28e+01,-9.10e+01,-3.10e+01,-2.18e+02,4.66e+02
29,-6.82e+01,3.00e+02,-3.56e+01,-3.08e+01,-3.35e+01,-2.16e+02,5.21e+02
30,-8.30e+01,1.76e+02,-1.43e+01,-8.36e+01,5.54e-01,-2.41e+02,4.99e+02
31,-1.26e+03,-5.39e+02,-5.39e+02,-4.32e+02,-8.32e+02,0.00e+00,1.78e+03
32,-9.40e+01,-4.03e+01,-4.03e+01,-4.80e+02,-1.04e+03,0.00e+00,1.98e+03
33,-1.15e+03,-3.20e+02,-5.37e+02,-3.34e+02,-7.29e+02,-2.46e+02,1.63e+03
34,-2.10e+02,-8.81e+01,-2.09e+02,-4.81e+02,-6.26e+02,-1.79e+02,1.41e+03
35,-8.33e+02,-4.87e+02,-6.19e+02,-3.18e+02,-7.96e+02,-1.05e+02,1.53e+03
36,-2.61e+02,6.24e+01,-1.54e+02,-2.24e+02,-3.34e+02,-2.46e+02,8.65e+02
37,-1.73e+01,-5.68e+00,-1.26e+02,-3.40e+02,-3.52e+02,-1.79e+02,9.09e+02
38,-2.49e+02,1.91e+02,-1.33e+02,-2.68e+02,-2.61e+02,-2.30e+02,8.58e+02
39,-3.11e+01,2.40e+02,-3.20e+02,-2.07e+02,-3.94e+02,-3.18e+02,1.06e+03
40,-8.21e+01,1.91e+02,-8.89e+01,-2.88e+02,-3.07e+02,-2.57e+02,8.99e+02
41,2.91e+01,3.10e+02,-1.32e+01,-1.31e+02,-1.01e+01,-2.30e+02,5.51e+02
42,6.15e+01,2.80e+02,-2.80e+02,-5.67e+01,6.83e+00,-3.18e+02,7.43e+02
43,-5.04e+01,5.21e+02,-1.01e+02,-4.84e+01,1.83e+01,-2.67e+02,7.61e+02
44,2.88e+01,5.26e+02,6.14e+01,-6.07e+01,-3.35e+01,-2.93e+02,7.11e+02
45,8.92e+01,4.33e+02,-5.66e+01,-6.54e+01,-4.38e+01,-2.23e+02,5.98e+02
46,-1.20e+03,-5.13e+02,-5.13e+02,-1.73e+02,-1.02e+03,0.00e+00,1.93e+03
47,-9.40e+01,-4.03e+01,-4.03e+01,-4.80e+02,-1.04e+03,0.00e+00,1.98e+03
48,-1.05e+03,-6.85e+01,-4.29e+02,-3.43e+02,-7.29e+02,-1.37e+02,1.65e+03
49,-2.34e+02,1.80e+02,-5.69e+02,-3.01e+02,-1.03e+03,-2.96e+02,2.04e+03
50,-4.62e+02,1.62e+02,-1.04e+02,-4.58e+02,-9.00e+02,-1.22e+02,1.84e+03
51,-1.53e+02,3.14e+02,-4.61e+01,-2.34e+02,-3.34e+02,-1.37e+02,8.57e+02
52,4.07e+01,2.97e+02,-4.52e+02,-1.81e+02,-4.08e+02,-2.96e+02,1.14e+03
53,-2.12e+02,5.91e+02,-4.00e+02,-6.03e+01,-3.12e+02,-2.78e+02,1.17e+03
54,7.19e+01,4.81e+02,-2.17e+02,-1.99e+02,-3.94e+02,-2.32e+02,1.06e+03
55,-8.45e+01,3.57e+02,-3.03e+02,-1.45e+02,-4.25e+02,-2.11e+02,1.04e+03
56,-7.08e+00,6.79e+02,-3.12e+02,-1.74e+01,5.06e+00,-2.78e+02,1.00e+03
57,1.65e+02,5.20e+02,-1.77e+02,-4.83e+01,6.83e+00,-2.32e+02,7.30e+02
58,1.01e+02,8.75e+02,5.13e+01,-2.36e+01,1.83e+01,-1.74e+02,8.57e+02
59,-1.62e+01,7.25e+02,-1.00e+02,-2.45e+01,7.00e+01,-2.28e+02,8.89e+02
60,7.85e+01,6.75e+02,-1.94e+02,-3.62e+00,6.48e+01,-2.88e+02,9.24e+02
61,-1.20e+03,-5.13e+02,-5.13e+02,-1.73e+02,-1.02e+03,0.00e+00,1.93e+03
62,-3.21e+02,-1.38e+02,-1.38e+02,-1.84e+01,-1.27e+03,0.00e+00,2.20e+03
63,-9.91e+02,2.02e+02,-6.97e+02,1.69e+02,-8.60e+02,-1.67e+02,1.88e+03
64,-1.42e+02,3.93e+02,-4.78e+02,-3.25e+02,-1.03e+03,-8.16e+01,2.03e+03
65,-8.13e+02,-2.50e+02,-5.80e+02,8.43e+00,-1.04e+03,-3.59e+01,1.87e+03
66,-6.87e+01,5.97e+02,-3.02e+02,9.79e+01,-3.15e+02,-1.67e+02,1.03e+03
67,1.32e+02,5.10e+02,-3.60e+02,-2.05e+02,-4.08e+02,-8.16e+01,1.10e+03
68,-8.34e+01,8.92e+02,-2.71e+02,5.21e-02,-3.12e+02,-7.51e+01,1.22e+03
69,4.62e+00,7.81e+02,-5.75e+02,-7.88e+01,-4.44e+02,-2.07e+02,1.46e+03
70,2.09e+02,8.73e+02,-3.42e+02,-6.28e+01,-3.44e+02,-1.67e+02,1.25e+03
71,1.22e+02,9.80e+02,-1.83e+02,4.30e+01,5.06e+00,-7.51e+01,1.06e+03
72,1.85e+02,8.58e+02,-4.98e+02,-6.12e+01,1.69e+02,-2.07e+02,1.27e+03
73,9.97e+01,1.05e+03,-3.10e+01,2.91e+01,5.89e+01,4.55e+00,1.03e+03
74,6.83e+01,9.22e+02,-1.57e+01,5.00e+01,7.00e+01,2.79e+01,9.12e+02
75,7.50e+01,1.03e+03,-5.25e+00,1.14e+01,4.94e+01,-2.81e+00,1.00e+03
76,-7.87e+02,-3.37e+02,-3.37e+02,5.25e+02,-7.32e+02,0.00e+00,1.62e+03
77,-3.21e+02,-1.38e+02,-1.38e+02,-1.84e+01,-1.27e+03,0.00e+00,2.20e+03
78,-9.36e+02,3.30e+02,-6.42e+02,2.36e+02,-8.60e+02,1.24e+02,1.94e+03
79,-2.37e+02,5.07e+02,-5.90e+02,3.39e+02,-9.23e+02,2.41e+01,1.96e+03
80,-5.48e+02,2.21e+02,-6.76e+02,1.98e+02,-9.44e+02,-3.97e+00,1.87e+03
81,-1.38e+01,7.25e+02,-2.47e+02,1.66e+02,-3.15e+02,1.24e+02,1.10e+03
82,4.35e+01,6.27e+02,-4.70e+02,1.34e+02,-2.23e+02,2.41e+01,1.05e+03
83,3.34e+01,9.41e+02,-2.30e+02,2.49e+02,-2.36e+02,1.46e+02,1.24e+03
84,3.95e+01,8.62e+02,-5.41e+02,3.22e+01,-4.44e+02,2.52e+02,1.51e+03
85,-1.05e+01,7.75e+02,-1.57e+02,1.63e+02,-2.93e+02,1.61e+02,1.08e+03
86,1.45e+02,9.88e+02,-1.82e+02,7.37e+01,1.46e+01,1.46e+02,1.08e+03
87,2.20e+02,9.40e+02,-4.63e+02,4.99e+01,1.69e+02,2.52e+02,1.33e+03
88,7.19e+01,9.86e+02,-5.88e+01,1.17e+02,5.89e+01,2.36e+02,1.09e+03
89,6.63e+01,8.00e+02,9.96e+01,-1.61e+02,1.47e+02,2.30e+02,9.04e+02
90,3.36e+02,1.04e+03,-1.41e+02,3.10e+01,5.29e+01,1.66e+02,1.07e+03
91,-7.87e+02,-3.37e+02,-3.37e+02,5.25e+02,-7.32e+02,0.00e+00,1.62e+03
92,-1.11e+02,-4.76e+01,-4.76e+01,6.44e+02,-3.70e+02,0.00e+00,1.29e+03
93,-1.77e+02,2.89e+02,-1.37e+02,8.18e+02,-2.46e+02,3.19e+02,1.64e+03
94,-2.80e+02,4.06e+02,-6.33e+02,3.71e+02,-9.23e+02,3.98e+02,2.07e+03
95,-1.48e+02,2.08e+02,4.10e+02,6.65e+02,-4.71e+02,2.01e+02,1.53e+03
96,7.50e+01,3.97e+02,-2.91e+01,4.57e+02,-7.98e+01,3.19e+02,1.05e+03
97,5.89e-01,5.27e+02,-5.13e+02,1.67e+02,-2.23e+02,3.98e+02,1.23e+03
98,-1.13e+02,6.00e+02,-3.76e+02,3.35e+02,-2.36e+02,4.04e+02,1.33e+03
99,9.50e+01,5.17e+02,-8.81e+01,8.07e+01,-1.26e+02,4.12e+02,9.30e+02
100,1.93e+02,7.07e+02,-3.87e+02,2.38e+02,-2.62e+02,3.60e+02,1.29e+03
101,-6.82e-01,6.48e+02,-3.28e+02,1.60e+02,1.46e+01,4.04e+02,1.14e+03
102,1.61e+02,5.45e+02,-6.01e+01,-7.58e+01,6.94e+01,4.12e+02,9.07e+02
103,1.68e+02,6.34e+02,1.26e+02,7.94e+01,2.07e+01,3.99e+02,8.57e+02
104,-8.25e+01,4.53e+02,-4.92e+01,4.71e+00,1.47e+02,4.37e+02,9.53e+02
105,-1.45e+02,4.41e+02,-1.07e+02,6.78e+00,1.18e+02,4.41e+02,9.74e+02
106,2.89e+02,1.24e+02,1.24e+02,7.75e+02,2.65e+02,0.00e+00,1.43e+03
107,-1.11e+02,-4.76e+01,-4.76e+01,6.44e+02,-3.70e+02,0.00e+00,1.29e+03
108,-3.06e+02,-1.25e+01,-2.66e+02,8.42e+02,-2.46e+02,4.15e+02,1.70e+03
109,1.47e+02,-5.89e+01,2.67e+02,6.13e+02,3.34e+02,4.42e+02,1.46e+03
110,-2.26e+02,-1.67e+02,-8.06e+02,7.57e+02,-1.00e+02,2.10e+02,1.50e+03
111,-5.43e+01,9.55e+01,-1.58e+02,4.81e+02,-7.98e+01,4.15e+02,1.13e+03
112,4.37e+01,-1.03e+02,2.23e+02,2.70e+02,7.68e+01,4.42e+02,9.50e+02
113,1.48e+02,3.11e+01,2.36e+02,4.02e+02,8.46e+01,4.99e+02,1.13e+03
114,-9.89e+01,6.47e+01,-2.82e+02,1.16e+02,-1.26e+02,5.72e+02,1.08e+03
115,-1.13e+02,-1.11e+02,2.31e+02,3.03e+02,1.00e+02,4.78e+02,1.05e+03
116,1.04e+02,1.21e+01,2.17e+02,1.48e+02,-6.33e+00,4.99e+02,9.18e+02
117,-3.35e+01,9.27e+01,-2.54e+02,-4.07e+01,6.94e+01,5.72e+02,1.05e+03
118,-1.09e+02,-1.18e+01,-1.51e+02,1.09e+02,2.07e+01,4.73e+02,8.50e+02
119,1.37e+02,7.32e+01,1.06e+02,-1.01e+02,-5.52e+01,5.08e+02,9.04e+02
120,2.91e+02,2.49e+02,8.39e+01,-4.00e+00,-7.65e+01,5.14e+02,9.20e+02
121,2.89e+02,1.24e+02,1.24e+02,7.75e+02,2.65e+02,0.00e+00,1.43e+03
122,3.06e+02,1.31e+02,1.31e+02,3.99e+02,9.69e+02,0.00e+00,1.82e+03
123,7.34e+02,-2.04e+02,5.58e+02,6.34e+02,6.56e+02,3.47e+02,1.90e+03
124,5.17e+01,-2.80e+02,1.73e+02,6.05e+02,3.34e+02,3.14e+02,1.38e+03
125,5.02e+02,1.88e+01,9.19e+02,5.89e+02,6.19e+02,1.37e+02,1.69e+03
126,4.60e+01,-4.99e+02,2.64e+02,3.86e+02,2.24e+02,3.47e+02,1.19e+03
127,-5.12e+01,-3.25e+02,1.28e+02,2.62e+02,7.68e+01,3.14e+02,8.22e+02
128,-1.13e+02,-5.78e+02,-2.49e+01,3.77e+02,8.46e+01,4.15e+02,1.11e+03
129,8.45e+01,-5.61e+02,5.21e+02,1.08e+02,3.39e+02,5.21e+02,1.44e+03
130,5.68e+01,-4.25e+02,-4.33e+01,2.85e+02,9.63e+01,4.12e+02,9.88e+02
131,-1.57e+02,-5.97e+02,-4.39e+01,1.23e+02,-6.33e+00,4.15e+02,9.05e+02
132,-9.31e+01,-6.38e+02,4.44e+02,2.77e+01,-1.60e+02,5.21e+02,1.33e+03
133,2.70e+01,-5.57e+02,1.26e+02,1.31e+02,-4.63e+01,4.23e+02,1.00e+03
134,-1.13e+02,-5.10e+02,-1.44e+02,-1.53e+02,-5.52e+01,4.51e+02,9.14e+02
135,-3.43e+02,-7.65e+02,4.47e+00,1.65e+01,1.68e+01,4.26e+02,9.96e+02
136,1.17e+03,5.03e+02,5.03e+02,1.73e+02,1.02e+03,0.00e+00,1.92e+03
137,3.06e+02,1.31e+02,1.31e+02,3.99e+02,9.69e+02,0.00e+00,1.82e+03
138,6.64e+02,-3.68e+02,4.88e+02,5.80e+02,6.56e+02,1.14e+02,1.80e+03
139,3.33e+02,-5.24e+02,7.31e+02,2.38e+01,1.20e+03,2.14e+02,2.38e+03
140,5.63e+02,-4.80e+01,9.43e+01,3.89e+02,8.93e+02,1.18e+02,1.79e+03
141,-2.42e+01,-6.63e+02,1.93e+02,3.32e+02,2.24e+02,1.14e+02,1.06e+03
142,-2.60e+01,-6.78e+02,5.78e+02,1.11e+00,3.56e+02,2.14e+02,1.30e+03
143,1.02e+02,-9.36e+02,4.07e+02,2.05e+02,3.35e+02,2.01e+02,1.44e+03
144,-3.17e+01,-8.33e+02,4.04e+02,1.81e+01,3.39e+02,1.43e+02,1.26e+03
145,-2.04e+02,-9.94e+02,4.47e+02,1.19e+02,3.62e+02,1.35e+02,1.43e+03
146,-7.89e+01,-1.01e+03,3.29e+02,1.39e+02,-6.74e+00,2.01e+02,1.27e+03
147,-2.09e+02,-9.09e+02,3.28e+02,-6.24e+01,-1.60e+02,1.43e+02,1.14e+03
148,-1.64e+02,-1.00e+03,-6.55e+01,5.88e+01,-4.63e+01,2.52e+02,1.00e+03
149,-3.69e+00,-8.17e+02,4.66e+01,7.46e+01,-1.42e+02,2.95e+02,1.02e+03
150,5.53e+00,-9.28e+02,6.59e+01,3.10e+01,-1.07e+02,2.68e+02,1.09e+03
151,1.17e+03,5.03e+02,5.03e+02,1.73e+02,1.02e+03,0.00e+00,1.92e+03
152,1.96e+02,8.40e+01,8.40e+01,-3.40e+02,1.26e+03,0.00e+00,2.26e+03
153,1.05e+03,-2.25e+02,5.49e+02,-1.26e+02,8.57e+02,-7.85e+01,1.87e+03
154,3.83e+02,-4.07e+02,7.81e+02,-3.04e+01,1.20e+03,-2.46e+02,2.36e+03
155,5.09e+02,-3.09e+02,3.11e+02,-2.00e+02,1.02e+03,-1.17e+02,1.96e+03
156,6.39e+01,-6.49e+02,1.26e+02,-6.73e+01,3.61e+02,-7.85e+01,9.89e+02
157,2.39e+01,-5.61e+02,6.27e+02,-5.30e+01,3.56e+02,-2.46e+02,1.28e+03
158,1.05e+02,-9.30e+02,4.09e+02,9.46e+01,3.35e+02,-1.28e+02,1.37e+03
159,-6.53e+01,-8.09e+02,3.81e+02,-1.02e+02,4.69e+02,-6.35e+01,1.34e+03
160,8.87e+01,-7.08e+02,2.81e+02,-1.36e+01,4.36e+02,-9.86e+01,1.19e+03
161,-7.64e+01,-1.01e+03,3.32e+02,2.87e+01,-6.74e+00,-1.28e+02,1.21e+03
162,-2.16e+02,-8.74e+02,3.16e+02,-1.82e+00,-7.48e+01,-6.35e+01,1.05e+03
163,-1.13e+02,-1.10e+03,1.16e+01,6.22e+01,-3.62e+01,1.61e+01,1.07e+03
164,-3.00e+01,-8.78e+02,2.02e+01,-1.04e+02,-1.42e+02,-2.76e+01,9.27e+02
165,-2.38e+02,-9.87e+02,2.47e+02,2.69e+01,-7.20e+01,-1.07e+02,1.10e+03
166,1.26e+03,5.41e+02,5.41e+02,-3.79e+02,9.65e+02,0.00e+00,1.93e+03
167,1.96e+02,8.40e+01,8.40e+01,-3.40e+02,1.26e+03,0.00e+00,2.26e+03
168,1.18e+03,6.50e+01,6.74e+02,-1.58e+02,8.57e+02,-2.82e+02,1.86e+03
169,1.58e+02,-1.00e+02,3.25e+02,-4.70e+02,8.35e+02,-1.85e+02,1.73e+03
170,8.87e+02,4.37e+02,7.12e+02,-2.32e+02,9.83e+02,-1.05e+02,1.80e+03
171,1.88e+02,-3.59e+02,2.50e+02,-9.95e+01,3.61e+02,-2.82e+02,9.98e+02
172,-7.20e+01,-1.99e+02,2.26e+02,-3.06e+02,4.14e+02,-1.85e+02,1.02e+03
173,1.43e+02,-5.94e+02,1.84e+02,-1.78e+02,2.98e+02,-2.23e+02,1.04e+03
174,5.53e+01,-5.28e+02,5.01e+02,-1.45e+02,4.69e+02,-3.46e+02,1.37e+03
175,-4.88e+01,-5.33e+02,2.00e+02,-1.95e+02,3.41e+02,-2.88e+02,1.06e+03
176,-1.04e+02,-7.00e+02,7.78e+01,-6.48e+01,6.65e+00,-2.23e+02,8.11e+02
177,-9.57e+01,-5.93e+02,4.37e+02,-4.44e+01,-7.48e+01,-3.46e+02,1.09e+03
178,-1.04e+01,-8.64e+02,1.14e+02,-1.33e+01,-3.62e+01,-1.96e+02,9.85e+02
179,-8.26e+01,-8.01e+02,-1.11e+01,-1.32e+01,1.97e+00,-1.96e+02,8.30e+02
180,-1.02e+02,-8.13e+02,3.95e+01,-3.28e+01,1.97e+01,-1.81e+02,8.54e+02
181,1.26e+03,5.41e+02,5.41e+02,-3.79e+02,9.65e+02,0.00e+00,1.93e+03
182,1.57e+02,6.75e+01,6.75e+01,-5.18e+02,8.59e+02,0.00e+00,1.74e+03
183,1.12e+03,3.34e+02,3.58e+02,-4.38e+02,6.40e+02,-1.31e+02,1.57e+03
184,2.17e+02,3.85e+01,3.84e+02,-4.44e+02,8.35e+02,-2.67e+02,1.73e+03
185,5.57e+02,3.60e+01,6.36e+01,-5.80e+02,7.80e+02,-1.02e+02,1.77e+03
186,2.87e+02,-2.42e+01,-8.93e-02,-3.30e+02,3.06e+02,-1.31e+02,8.66e+02
187,-1.26e+01,-6.00e+01,2.86e+02,-2.80e+02,4.14e+02,-2.67e+02,1.03e+03
188,3.09e+02,-2.05e+02,3.50e+02,-1.86e+02,2.98e+02,-3.02e+02,9.64e+02
189,5.35e+01,-1.78e+02,1.22e+02,-2.73e+02,3.45e+02,-2.97e+02,9.59e+02
190,1.59e+02,-2.84e+01,2.87e+02,-2.38e+02,3.89e+02,-2.37e+02,9.32e+02
191,6.24e+01,-3.11e+02,2.44e+02,-7.25e+01,6.65e+00,-3.02e+02,7.28e+02
192,-7.02e+01,-2.31e+02,6.94e+01,-1.09e+02,2.92e+01,-2.97e+02,6.09e+02
193,-4.09e+01,-5.40e+02,-8.57e+01,-9.74e+01,8.26e+00,-2.74e+02,6.95e+02
194,4.38e+01,-5.06e+02,1.15e+02,-1.85e+01,1.97e+00,-3.18e+02,8.07e+02
195,3.46e+01,-3.76e+02,1.01e+02,-6.77e+01,-3.54e+01,-3.51e+02,7.67e+02
196,1.43e+03,6.14e+02,6.14e+02,-4.27e+02,7.96e+02,0.00e+00,1.77e+03
197,1.57e+02,6.75e+01,6.75e+01,-5.18e+02,8.59e+02,0.00e+00,1.74e+03
198,1.19e+03,4.92e+02,4.26e+02,-3.82e+02,6.40e+02,-1.56e+02,1.51e+03
199,4.27e+02,1.62e+02,1.90e+02,-4.63e+02,5.64e+02,-1.33e+02,1.31e+03
200,8.92e+02,5.14e+02,4.90e+02,-3.20e+02,6.75e+02,-6.44e+01,1.36e+03
201,3.54e+02,1.34e+02,6.77e+01,-2.74e+02,3.06e+02,-1.56e+02,8.05e+02
202,1.90e+02,6.01e+01,8.81e+01,-3.16e+02,3.44e+02,-1.33e+02,8.49e+02
203,4.67e+02,1.11e+02,1.66e+02,-2.85e+02,2.77e+02,-1.60e+02,8.12e+02
204,1.09e+02,-4.85e+01,1.78e+02,-2.40e+02,3.45e+02,-2.03e+02,8.33e+02
205,2.84e+02,3.89e+01,8.56e+01,-3.26e+02,3.22e+02,-1.61e+02,8.71e+02
206,8.41e+01,-5.27e+01,1.53e+00,-1.35e+02,3.23e+01,-1.60e+02,3.85e+02
207,-1.45e+01,-1.01e+02,1.25e+02,-7.61e+01,2.92e+01,-2.03e+02,4.27e+02
208,8.79e+01,-2.39e+02,4.32e+01,-5.75e+01,8.26e+00,-2.12e+02,4.89e+02
209,3.88e+01,-2.84e+02,-1.02e+02,-7.98e+01,4.04e+01,-2.52e+02,5.42e+02
210,-1.44e+01,-1.49e+02,3.72e+01,-7.30e+01,5.01e+01,-1.66e+02,3.66e+02
211,1.43e+03,6.14e+02,6.14e+02,-4.27e+02,7.96e+02,0.00e+00,1.77e+03
212,1.19e+03,5.10e+02,5.10e+02,-5.71e+02,8.29e+02,0.00e+00,1.87e+03
213,1.86e+03,4.86e+02,5.44e+02,-3.79e+02,6.89e+02,6.04e+01,1.92e+03
214,3.88e+02,7.10e+01,1.51e+02,-3.49e+02,5.64e+02,-6.21e+01,1.19e+03
215,1.24e+03,3.73e+02,5.21e+02,-5.28e+02,7.83e+02,-4.59e+01,1.83e+03
216,5.84e+02,-6.12e+01,-3.71e+00,-1.25e+02,3.40e+02,6.04e+01,8.87e+02
217,1.51e+02,-3.06e+01,4.92e+01,-2.01e+02,3.44e+02,-6.21e+01,7.16e+02
218,4.76e+02,1.33e+02,1.75e+02,-1.35e+02,2.77e+02,-4.26e+01,6.29e+02
219,4.12e+02,5.96e+01,2.31e+02,-1.63e+02,3.66e+02,-3.25e+01,7.60e+02
220,3.97e+02,9.52e+01,1.04e+02,-1.23e+02,3.08e+02,-5.38e+01,6.54e+02
221,9.35e+01,-3.06e+01,1.10e+01,1.54e+01,3.23e+01,-4.26e+01,1.46e+02
222,7.26e+01,-8.59e+01,8.60e+01,6.94e+00,3.08e+01,-3.25e+01,1.83e+02
223,5.67e+01,-5.81e+01,1.70e+01,-2.73e+00,6.54e+01,-6.14e+01,1.85e+02
224,1.09e+02,-1.21e+02,-3.23e+01,-1.45e+01,4.04e+01,-1.92e+01,2.17e+02
225,8.59e+01,-8.43e+01,2.83e+01,-9.62e+00,4.98e+01,-5.07e+01,1.95e+02
226,-3.52e+02,-1.51e+02,-1.51e+02,-4.93e+02,-7.54e+02,0.00e+00,1.57e+03
227,-1.21e+03,-5.19e+02,-5.19e+02,-7.69e+02,-9.54e+02,0.00e+00,2.23e+03
228,-1.15e+03,-3.11e+02,-6.40e+02,-4.04e+02,-8.72e+02,-5.34e+01,1.82e+03
229,-2.46e+02,-1.70e+02,-3.38e+02,-5.08e+02,-7.99e+02,-1.43e+02,1.66e+03
230,-7.35e+02,-5.82e+01,-4.54e+02,-5.29e+02,-9.57e+02,-3.16e+01,1.98e+03
231,-4.74e+02,-2.07e+01,-3.50e+02,-1.60e+02,-6.25e+02,-5.34e+01,1.19e+03
232,-3.45e+01,-7.94e+01,-2.48e+02,-2.64e+02,-5.34e+02,-1.43e+02,1.08e+03
233,-3.42e+02,-8.11e+01,-2.72e+02,-1.76e+02,-4.69e+02,-2.36e+02,9.88e+02
234,-2.99e+02,-1.44e+02,-3.70e+02,-2.21e+02,-5.72e+02,-1.83e+02,1.13e+03
235,-2.07e+02,-2.21e+02,-3.07e+02,-1.94e+02,-5.14e+02,-1.58e+02,9.95e+02
236,-1.20e+02,1.43e+01,-1.77e+02,-2.20e+00,-1.85e+02,-2.36e+02,5.46e+02
237,-3.66e+01,-3.11e+01,-2.58e+02,1.82e+01,-1.96e+02,-1.83e+02,5.16e+02
238,-8.10e+01,8.43e+01,-5.62e+01,-6.54e+00,-2.35e+02,-2.66e+02,6.33e+02
239,-6.39e+01,8.59e+01,6.25e+01,-1.91e+01,-1.04e+02,-2.37e+02,4.71e+02
240,-1.76e+02,6.25e+01,-1.39e+02,-7.62e-01,-1.92e+02,-2.72e+02,6.18e+02
241,-3.52e+02,-1.51e+02,-1.51e+02,-4.93e+02,-7.54e+02,0.00e+00,1.57e+03
242,8.52e+01,3.65e+01,3.65e+01,-8.39e+02,-1.05e+03,0.00e+00,2.33e+03
243,-3.71e+02,-2.85e+02,-5.50e+02,-4.52e+02,-8.28e+02,-3.95e+02,1.79e+03
244,-3.40e+02,-3.89e+02,-4.32e+02,-7.16e+02,-7.99e+02,-3.92e+02,1.98e+03
245,-5.34e+02,-7.46e+02,-7.04e+02,-6.14e+02,-8.50e+02,-2.67e+02,1.88e+03
246,-1.79e+02,-2.02e+02,-4.67e+02,-3.11e+02,-5.53e+02,-3.95e+02,1.32e+03
247,-1.28e+02,-2.98e+02,-3.41e+02,-4.72e+02,-5.34e+02,-3.92e+02,1.42e+03
248,-3.39e+02,-7.24e+01,-2.68e+02,-2.82e+02,-4.69e+02,-4.25e+02,1.22e+03
249,1.27e+02,-9.74e+01,-3.70e+02,-3.46e+02,-4.87e+02,-5.67e+02,1.49e+03
250,-4.47e+01,3.11e+00,-2.69e+02,-3.64e+02,-5.05e+02,-4.73e+02,1.38e+03
251,-1.16e+02,2.30e+01,-1.73e+02,-1.08e+02,-1.85e+02,-4.25e+02,8.43e+02
252,1.48e+02,-8.82e+01,-3.61e+02,-8.60e+01,-1.17e+02,-5.67e+02,1.10e+03
253,-9.54e+01,2.73e+02,-9.90e+01,-3.08e+01,-8.35e+01,-5.53e+02,1.04e+03
254,-1.20e+01,2.07e+02,1.14e+02,-5.31e+01,-1.04e+02,-5.73e+02,1.03e+03
255,6.17e+01,5.76e+01,-1.39e+02,-7.15e+01,-1.48e+02,-4.48e+02,8.49e+02
256,-9.40e+01,-4.03e+01,-4.03e+01,-4.80e+02,-1.04e+03,0.00e+00,1.98e+03
257,8.52e+01,3.65e+01,3.65e+01,-8.39e+02,-1.05e+03,0.00e+00,2.33e+03
258,-3.44e+02,-2.23e+02,-5.23e+02,-4.81e+02,-8.28e+02,-4.10e+02,1.82e+03
259,-2.33e+02,-3.58e+02,-9.73e+02,-8.04e+02,-1.33e+03,-5.94e+02,2.96e+03
260,2.12e+02,5.14e+02,2.04e+02,-6.81e+02,-1.02e+03,-1.44e+02,2.16e+03
261,-1.52e+02,-1.40e+02,-4.41e+02,-3.40e+02,-5.53e+02,-4.10e+02,1.36e+03
262,1.30e+02,-2.03e+02,-8.18e+02,-4.39e+02,-6.59e+02,-5.94e+02,1.91e+03
263,-2.74e+02,-2.78e+00,-8.87e+02,-2.07e+02,-5.14e+02,-7.38e+02,1.78e+03
264,1.28e+02,-9.35e+01,-3.68e+02,-3.73e+02,-4.87e+02,-7.61e+02,1.75e+03
265,-1.25e+02,-4.03e+02,-8.66e+02,-3.31e+02,-6.42e+02,-6.02e+02,1.75e+03
266,-1.82e+02,3.69e+01,-8.47e+02,-5.67e+01,-1.13e+02,-7.38e+02,1.52e+03
267,1.50e+02,-8.42e+01,-3.59e+02,-1.14e+02,-1.17e+02,-7.61e+02,1.42e+03
268,1.65e+00,4.99e+02,-1.97e+00,-6.07e+01,-8.35e+01,-6.30e+02,1.21e+03
269,-6.12e+01,4.94e+02,-3.15e+02,4.87e+01,-3.55e+00,-7.01e+02,1.41e+03
270,-5.14e+01,1.53e+02,-4.78e+02,-3.61e+01,1.88e+01,-8.39e+02,1.56e+03
271,-9.40e+01,-4.03e+01,-4.03e+01,-4.80e+02,-1.04e+03,0.00e+00,1.98e+03
272,-3.98e+02,-1.71e+02,-1.71e+02,-8.25e+02,-1.87e+03,0.00e+00,3.54e+03
273,-6.46e+02,-2.33e+02,-1.53e+03,-3.01e+02,-1.34e+03,-6.52e+02,2.87e+03
274,-2.19e+02,-3.28e+02,-9.60e+02,-9.85e+02,-1.33e+03,-6.82e+02,3.18e+03
275,-9.80e+02,-1.13e+03,-1.53e+03,-6.89e+02,-1.49e+03,-4.89e+02,3.00e+03
276,-3.72e+02,-1.15e+02,-1.41e+03,-1.81e+02,-7.13e+02,-6.52e+02,2.08e+03
277,1.43e+02,-1.72e+02,-8.05e+02,-6.21e+02,-6.59e+02,-6.82e+02,2.13e+03
278,-1.71e+02,2.38e+02,-7.84e+02,-1.99e+02,-5.14e+02,-6.52e+02,1.73e+03
279,-1.35e+02,3.49e+02,-1.45e+03,-3.31e+02,-7.90e+02,-8.09e+02,2.60e+03
280,3.07e+02,3.73e+02,-9.15e+02,-3.66e+02,-5.21e+02,-7.61e+02,2.13e+03
281,-7.86e+01,2.77e+02,-7.44e+02,-4.83e+01,-1.13e+02,-6.52e+02,1.46e+03
282,2.03e+02,4.94e+02,-1.30e+03,-7.57e+01,1.74e+02,-8.09e+02,2.20e+03
283,-1.31e+02,6.10e+02,-3.67e+02,-2.45e+01,-7.93e+01,-3.94e+02,1.13e+03
284,1.40e+02,9.64e+02,-1.14e+02,4.26e+01,-3.55e+00,-4.95e+02,1.30e+03
285,1.93e+01,8.10e+02,-3.37e+02,6.85e+01,-7.09e+01,-4.22e+02,1.26e+03
286,-3.21e+02,-1.38e+02,-1.38e+02,-1.84e+01,-1.27e+03,0.00e+00,2.20e+03
287,-3.98e+02,-1.71e+02,-1.71e+02,-8.25e+02,-1.87e+03,0.00e+00,3.54e+03
288,-5.55e+02,-2.03e+01,-1.44e+03,-3.25e+02,-1.34e+03,-4.38e+02,2.79e+03
289,-1.34e+03,2.14e+02,-2.49e+03,-3.13e+02,-2.39e+03,-4.75e+02,4.86e+03
290,-2.31e+02,6.47e+02,-5.25e+02,-4.12e+02,-1.57e+03,-8.61e+01,3.01e+03
291,-2.81e+02,9.72e+01,-1.32e+03,-2.05e+02,-7.13e+02,-4.38e+02,1.96e+03
292,-3.90e+02,6.22e+02,-2.08e+03,-3.05e+02,-5.98e+02,-4.75e+02,2.76e+03
293,-5.08e+02,2.69e+02,-1.77e+03,-7.88e+01,-7.72e+02,-3.10e+02,2.30e+03
294,7.34e+01,8.34e+02,-1.24e+03,-2.69e+02,-7.90e+02,-4.72e+02,2.46e+03
295,-3.92e+02,3.79e+02,-1.50e+03,-8.02e+01,-8.65e+02,-3.85e+02,2.32e+03
296,-3.27e+02,3.46e+02,-1.69e+03,-6.12e+01,-1.59e+02,-3.10e+02,1.90e+03
297,4.11e+02,9.79e+02,-1.09e+03,-1.40e+01,1.74e+02,-4.72e+02,2.05e+03
298,-4.61e+01,8.07e+02,-2.83e+02,5.00e+01,-7.93e+01,-1.39e+02,1.03e+03
299,-1.02e+02,1.05e+03,3.63e+01,-3.48e+02,3.50e+02,2.44e+01,1.38e+03
300,2.87e+02,7.08e+02,-1.03e+03,-1.50e+02,1.10e+02,-4.44e+02,1.78e+03
301,-3.21e+02,-1.38e+02,-1.38e+02,-1.84e+01,-1.27e+03,0.00e+00,2.20e+03
302,-1.33e+03,-5.71e+02,-5.71e+02,5.50e+02,-1.77e+03,0.00e+00,3.30e+03
303,-7.56e+02,-1.32e+01,-1.80e+03,3.39e+02,-1.29e+03,3.70e+02,2.86e+03
304,-1.20e+03,5.55e+02,-2.34e+03,-3.01e+02,-2.39e+03,2.60e+02,4.90e+03
305,-7.85e+02,1.61e+02,-7.31e+02,1.46e+02,-1.64e+03,2.76e+01,2.99e+03
306,-4.76e+02,1.07e+02,-1.68e+03,1.34e+02,-5.92e+02,3.70e+02,2.00e+03
307,-2.45e+02,9.63e+02,-1.93e+03,-2.93e+02,-5.98e+02,2.60e+02,2.81e+03
308,-4.73e+02,3.50e+02,-1.74e+03,3.22e+01,-7.72e+02,1.50e+02,2.27e+03
309,-3.66e+02,1.09e+03,-1.73e+03,-3.16e+02,-8.20e+02,3.27e+02,2.93e+03
310,1.07e-01,1.02e+03,-1.68e+03,-2.86e+02,-7.20e+02,2.34e+02,2.75e+03
311,-2.92e+02,4.27e+02,-1.66e+03,4.99e+01,-1.59e+02,1.50e+02,1.88e+03
312,2.67e+02,1.36e+03,-1.46e+03,-3.76e+02,4.58e+02,3.27e+02,2.73e+03
313,-1.83e+01,7.16e+02,-9.78e+01,-1.61e+02,-1.39e+02,3.89e+02,1.09e+03
314,-9.14e+01,1.07e+03,4.68e+01,1.50e+02,3.50e+02,2.38e+02,1.35e+03
315,-6.59e+01,9.01e+02,-6.85e+02,3.56e+01,1.27e+02,4.87e+02,1.64e+03
316,-1.11e+02,-4.76e+01,-4.76e+01,6.44e+02,-3.70e+02,0.00e+00,1.29e+03
317,-1.33e+03,-5.71e+02,-5.71e+02,5.50e+02,-1.77e+03,0.00e+00,3.30e+03
318,-7.99e+02,-1.13e+02,-1.85e+03,3.71e+02,-1.29e+03,7.44e+02,3.06e+03
319,-4.13e+02,3.17e+02,-7.43e+02,1.08e+03,-7.65e+02,1.07e+03,3.09e+03
320,-1.54e+03,-1.05e+03,-2.29e+03,7.42e+02,-1.21e+03,5.43e+02,2.85e+03
321,-5.19e+02,6.66e+00,-1.73e+03,1.67e+02,-5.92e+02,7.44e+02,2.27e+03
322,-8.87e+01,4.56e+02,-6.04e+02,4.81e+02,-1.67e+02,1.07e+03,2.25e+03
323,-7.41e+01,3.48e+02,-4.83e+02,8.07e+01,-2.40e+02,1.05e+03,2.01e+03
324,-4.83e+02,8.21e+02,-1.85e+03,1.29e+02,-8.20e+02,1.20e+03,3.42e+03
325,3.15e+02,7.38e+02,-5.67e+02,3.14e+02,-1.88e+02,1.06e+03,2.26e+03
326,-8.61e+00,3.76e+02,-4.55e+02,-7.58e+01,-4.43e+01,1.05e+03,1.97e+03
327,1.50e+02,1.09e+03,-1.57e+03,6.91e+01,4.58e+02,1.20e+03,3.23e+03
328,-1.67e+02,3.68e+02,-2.47e+02,4.71e+00,-1.39e+02,5.96e+02,1.21e+03
329,1.35e+02,7.89e+02,2.44e+02,-4.71e+02,1.40e+02,7.72e+02,1.70e+03
330,9.28e+01,1.12e+03,-9.32e+01,-2.80e+02,-6.73e+01,7.79e+02,1.83e+03
331,-1.11e+02,-4.76e+01,-4.76e+01,6.44e+02,-3.70e+02,0.00e+00,1.29e+03
332,4.88e+02,2.09e+02,2.09e+02,1.10e+03,6.37e+02,0.00e+00,2.22e+03
333,3.34e+02,1.28e+02,7.04e+02,6.13e+02,4.65e+02,1.08e+03,2.35e+03
334,-4.87e+02,1.44e+02,-8.17e+02,1.06e+03,-7.65e+02,1.29e+03,3.30e+03
335,1.11e+03,1.38e+03,1.84e+03,9.45e+02,2.05e+02,6.11e+02,2.08e+03
336,2.31e+02,8.41e+01,6.60e+02,2.70e+02,2.08e+02,1.08e+03,2.02e+03
337,-1.63e+02,2.83e+02,-6.78e+02,4.63e+02,-1.67e+02,1.29e+03,2.53e+03
338,-2.68e+02,-1.04e+02,-6.77e+02,1.16e+02,-2.40e+02,1.21e+03,2.21e+03
339,2.87e+02,-1.03e+02,7.37e+02,7.20e+01,2.90e+02,1.47e+03,2.69e+03
340,-4.52e+02,-1.51e+02,-4.95e+02,2.09e+02,-2.83e+02,1.29e+03,2.34e+03
341,-2.03e+02,-7.64e+01,-6.49e+02,-4.07e+01,-4.43e+01,1.21e+03,2.17e+03
342,3.92e+01,-2.09e+02,6.31e+02,-1.43e+02,-1.67e+02,1.47e+03,2.67e+03
343,1.61e+02,9.73e+01,1.62e+02,-1.01e+02,5.39e+01,7.86e+02,1.38e+03
344,-2.51e+02,-1.12e+02,-1.43e+02,-3.07e+02,1.40e+02,8.29e+02,1.56e+03
345,-6.43e+01,-5.90e+02,-4.73e+02,-2.44e+02,1.66e+02,1.09e+03,2.01e+03
346,3.06e+02,1.31e+02,1.31e+02,3.99e+02,9.69e+02,0.00e+00,1.82e+03
347,4.88e+02,2.09e+02,2.09e+02,1.10e+03,6.37e+02,0.00e+00,2.22e+03
348,2.39e+02,-9.33e+01,6.09e+02,6.05e+02,4.65e+02,9.48e+02,2.19e+03
349,1.18e+03,-4.91e+02,2.00e+03,5.54e+02,1.96e+03,9.98e+02,4.49e+03
350,-2.51e+02,-1.07e+03,-7.54e+02,7.30e+02,8.25e+02,4.32e+02,2.17e+03
351,1.36e+02,-1.37e+02,5.65e+02,2.62e+02,2.08e+02,9.48e+02,1.85e+03
352,3.68e+02,-8.38e+02,1.65e+03,2.30e+02,4.48e+02,9.98e+02,2.90e+03
353,5.03e+02,-1.43e+02,1.50e+03,1.08e+02,6.43e+02,8.89e+02,2.39e+03
354,5.97e+01,-6.34e+02,5.10e+02,-5.60e+01,2.90e+02,1.19e+03,2.34e+03
355,4.42e+02,-4.67e+02,1.36e+03,1.19e+01,6.30e+02,1.00e+03,2.59e+03
356,3.26e+02,-2.19e+02,1.42e+03,2.77e+01,1.44e+02,8.89e+02,2.13e+03
357,-1.88e+02,-7.40e+02,4.03e+02,-2.71e+02,-1.67e+02,1.19e+03,2.35e+03
358,-8.91e+01,-4.86e+02,-8.76e+01,-1.53e+02,5.39e+01,7.28e+02,1.35e+03
359,2.37e+02,-5.69e+02,-1.31e+01,-3.34e+01,-3.15e+02,6.51e+02,1.44e+03
360,1.84e+01,-1.78e+02,7.06e+02,-9.92e+01,-1.83e+02,1.00e+03,1.94e+03
361,3.06e+02,1.31e+02,1.31e+02,3.99e+02,9.69e+02,0.00e+00,1.82e+03
362,1.59e+03,6.83e+02,6.83e+02,-2.60e+02,2.26e+03,0.00e+00,4.04e+03
363,9.62e+02,1.05e+02,2.20e+03,2.38e+01,1.68e+03,1.25e+02,3.44e+03
364,1.14e+03,-5.82e+02,1.96e+03,5.84e+02,1.96e+03,4.16e+02,4.25e+03
365,1.34e+03,2.50e+02,1.87e+03,2.23e+02,1.77e+03,2.62e+02,3.43e+03
366,6.03e+02,-4.86e+01,2.05e+03,1.11e+00,8.41e+02,1.25e+02,2.37e+03
367,3.29e+02,-9.29e+02,1.61e+03,2.61e+02,4.48e+02,4.16e+02,2.48e+03
368,3.87e+02,-4.14e+02,1.38e+03,1.81e+01,6.43e+02,5.11e+02,2.11e+03
369,3.63e+02,-1.12e+03,2.14e+03,7.23e+01,1.08e+03,5.31e+02,3.52e+03
370,-5.49e+01,-9.56e+02,1.25e+03,2.66e+02,6.44e+02,4.31e+02,2.39e+03
371,2.09e+02,-4.90e+02,1.31e+03,-6.24e+01,1.44e+02,5.11e+02,1.82e+03
372,-3.20e+02,-1.41e+03,1.85e+03,2.08e+02,-4.19e+02,5.31e+02,3.13e+03
373,1.60e+02,-6.53e+02,4.29e+02,7.46e+01,1.92e+02,3.22e+02,1.18e+03
374,2.49e+01,-1.06e+03,-2.25e+02,-4.70e+02,-3.15e+02,5.77e+02,1.71e+03
375,-1.19e+02,-1.08e+03,7.60e+02,-2.08e+02,2.22e+01,2.82e+02,1.70e+03
376,1.96e+02,8.40e+01,8.40e+01,-3.40e+02,1.26e+03,0.00e+00,2.26e+03
377,1.59e+03,6.83e+02,6.83e+02,-2.60e+02,2.26e+03,0.00e+00,4.04e+03
378,1.01e+03,2.22e+02,2.25e+03,-3.04e+01,1.68e+03,-3.35e+02,3.46e+03
379,5.69e+02,-2.60e+02,1.48e+03,-9.79e+02,1.92e+03,-5.69e+02,4.14e+03
380,1.47e+03,8.93e+02,1.79e+03,-4.66e+02,1.92e+03,-3.84e+02,3.58e+03
381,6.53e+02,6.78e+01,2.10e+03,-5.30e+01,8.41e+02,-3.35e+02,2.40e+03
382,-5.62e+01,-5.28e+02,1.21e+03,-7.26e+02,7.73e+02,-5.69e+02,2.60e+03
383,3.35e+02,-4.09e+02,1.32e+03,-1.02e+02,6.92e+02,-4.65e+02,2.09e+03
384,4.89e+02,-8.25e+02,2.27e+03,-4.69e+02,1.08e+03,-5.74e+02,3.52e+03
385,-3.99e+02,-9.30e+02,1.46e+03,-4.60e+02,6.51e+02,-5.33e+02,2.73e+03
386,1.84e+02,-4.73e+02,1.25e+03,-1.82e+00,1.49e+02,-4.65e+02,1.73e+03
387,-1.94e+02,-1.12e+03,1.98e+03,-3.34e+02,-4.19e+02,-5.74e+02,3.07e+03
388,1.34e+02,-7.15e+02,4.02e+02,-1.04e+02,1.92e+02,-8.13e-01,1.08e+03
389,-8.85e+01,-1.25e+03,2.15e+02,5.06e+01,-9.71e+01,-1.44e+02,1.38e+03
390,1.84e+02,-1.13e+03,5.26e+02,6.95e+01,3.89e+01,-9.20e+01,1.53e+03
391,1.96e+02,8.40e+01,8.40e+01,-3.40e+02,1.26e+03,0.00e+00,2.26e+03
392,2.83e+01,1.21e+01,1.21e+01,-9.28e+02,1.45e+03,0.00e+00,2.98e+03
393,4.09e+02,1.52e+02,9.12e+02,-4.70e+02,1.08e+03,-5.21e+02,2.33e+03
394,7.44e+02,1.49e+02,1.66e+03,-7.22e+02,1.92e+03,-6.43e+02,3.94e+03
395,-1.34e+02,-6.89e+02,-3.68e+01,-6.54e+02,1.33e+03,-1.64e+02,2.66e+03
396,1.80e+02,5.31e+01,8.13e+02,-3.06e+02,6.63e+02,-5.21e+02,1.71e+03
397,1.19e+02,-1.19e+02,1.39e+03,-4.69e+02,7.73e+02,-6.43e+02,2.38e+03
398,4.56e+02,-1.27e+02,1.44e+03,-1.45e+02,6.92e+02,-7.48e+02,2.25e+03
399,-1.83e+02,-1.95e+02,7.29e+02,-3.97e+02,6.25e+02,-8.09e+02,2.11e+03
400,3.54e+02,2.25e+02,1.32e+03,-2.83e+02,8.38e+02,-6.62e+02,2.17e+03
401,3.05e+02,-1.92e+02,1.37e+03,-4.44e+01,1.49e+02,-7.48e+02,1.91e+03
402,-2.98e+02,-2.44e+02,6.80e+02,-1.18e+02,5.02e+01,-8.09e+02,1.71e+03
403,3.45e+00,-7.15e+02,1.90e+02,-1.32e+01,6.40e+01,-5.29e+02,1.24e+03
404,9.03e+01,-8.32e+02,3.94e+02,-4.10e+01,-9.71e+01,-5.33e+02,1.45e+03
405,-1.21e+02,-3.63e+02,8.60e+02,-6.45e+01,-7.55e+01,-8.33e+02,1.84e+03
406,1.57e+02,6.75e+01,6.75e+01,-5.18e+02,8.59e+02,0.00e+00,1.74e+03
407,2.83e+01,1.21e+01,1.21e+01,-9.28e+02,1.45e+03,0.00e+00,2.98e+03
408,4.69e+02,2.90e+02,9.71e+02,-4.44e+02,1.08e+03,-6.03e+02,2.36e+03
409,1.69e+02,4.73e+02,6.02e+02,-8.72e+02,9.61e+02,-5.84e+02,2.50e+03
410,7.18e+02,1.01e+03,1.16e+03,-7.08e+02,1.14e+03,-4.17e+02,2.46e+03
411,2.39e+02,1.92e+02,8.73e+02,-2.80e+02,6.63e+02,-6.03e+02,1.75e+03
412,-5.41e+01,3.77e+02,5.06e+02,-5.75e+02,5.68e+02,-5.84e+02,1.80e+03
413,1.75e+02,-5.66e+01,4.07e+02,-2.73e+02,4.61e+02,-6.24e+02,1.48e+03
414,-9.42e+01,1.17e+01,8.18e+02,-3.61e+02,6.25e+02,-8.15e+02,2.07e+03
415,-2.06e+02,-1.29e+02,4.42e+02,-3.78e+02,5.00e+02,-7.02e+02,1.74e+03
416,5.16e+01,-1.10e+02,3.54e+02,-1.09e+02,1.45e+02,-6.24e+02,1.20e+03
417,-2.09e+02,-3.76e+01,7.69e+02,-8.23e+01,5.02e+01,-8.15e+02,1.69e+03
418,1.30e+02,-4.20e+02,3.16e+02,-1.85e+01,6.40e+01,-6.51e+02,1.31e+03
419,-5.33e+01,-4.62e+02,-2.92e+01,-2.19e+01,6.86e+01,-7.13e+02,1.31e+03
420,-6.53e+01,-2.96e+02,2.82e+02,-3.64e+01,1.41e+02,-5.82e+02,1.15e+03
421,1.57e+02,6.75e+01,6.75e+01,-5.18e+02,8.59e+02,0.00e+00,1.74e+03
422,1.45e+02,6.23e+01,6.23e+01,-7.34e+02,8.74e+02,0.00e+00,1.98e+03
423,5.10e+02,2.44e+02,3.83e+02,-4.63e+02,7.33e+02,-2.19e+02,1.57e+03
424,1.32e+02,3.87e+02,5.65e+02,-7.33e+02,9.61e+02,-3.94e+02,2.23e+03
425,2.56e+01,-2.41e+02,-4.85e+01,-6.28e+02,8.65e+02,-8.39e+01,1.87e+03
426,2.73e+02,1.43e+02,2.81e+02,-3.16e+02,5.13e+02,-2.19e+02,1.12e+03
427,-9.07e+01,2.92e+02,4.70e+02,-4.36e+02,5.68e+02,-3.94e+02,1.50e+03
428,2.31e+02,7.34e+01,4.63e+02,-2.40e+02,4.61e+02,-5.30e+02,1.33e+03
429,1.42e+02,1.95e+02,2.50e+02,-3.77e+02,4.66e+02,-5.34e+02,1.39e+03
430,1.84e+02,4.48e+02,5.51e+02,-3.48e+02,5.25e+02,-3.94e+02,1.33e+03
431,1.07e+02,2.04e+01,4.10e+02,-7.61e+01,1.45e+02,-5.30e+02,1.02e+03
432,2.10e+01,1.43e+02,1.98e+02,-1.14e+02,1.41e+02,-5.34e+02,9.89e+02
433,3.67e+01,-2.86e+02,-1.07e+02,-7.98e+01,1.50e+02,-5.28e+02,1.00e+03
434,4.14e+01,-2.41e+02,6.54e+01,-8.41e+00,6.86e+01,-5.86e+02,1.06e+03
435,1.23e+02,-9.32e+01,1.58e+02,-5.57e+01,8.24e+01,-6.32e+02,1.13e+03
436,1.19e+03,5.10e+02,5.10e+02,-5.71e+02,8.29e+02,0.00e+00,1.87e+03
437,1.45e+02,6.23e+01,6.23e+01,-7.34e+02,8.74e+02,0.00e+00,1.98e+03
438,4.71e+02,1.54e+02,3.44e+02,-3.49e+02,7.33e+02,-1.48e+02,1.46e+03
439,1.14e+03,3.59e+02,7.09e+02,-5.97e+02,9.29e+02,-1.49e+02,2.05e+03
440,7.98e+02,5.53e+02,4.54e+02,-5.28e+02,7.27e+02,-8.68e+01,1.59e+03
441,2.34e+02,5.21e+01,2.42e+02,-2.01e+02,5.13e+02,-1.48e+02,1.01e+03
442,3.37e+02,1.40e+01,3.65e+02,-2.54e+02,6.35e+02,-1.49e+02,1.26e+03
443,4.92e+02,1.39e+02,4.18e+02,-1.63e+02,6.17e+02,-1.83e+02,1.19e+03
444,8.95e+01,7.17e+01,1.97e+02,-2.69e+02,4.66e+02,-1.99e+02,1.00e+03
445,3.69e+02,-2.46e+01,3.91e+02,-2.39e+02,6.11e+02,-1.60e+02,1.24e+03
446,1.52e+02,-6.04e+00,2.72e+02,6.94e+00,2.82e+02,-1.83e+02,6.31e+02
447,-3.16e+01,1.98e+01,1.45e+02,-5.57e+00,1.41e+02,-1.99e+02,4.51e+02
448,1.07e+02,-1.23e+02,-3.72e+01,-1.45e+01,1.50e+02,-2.95e+02,6.08e+02
449,5.02e+01,-6.43e+01,4.80e+01,1.50e+00,1.95e+02,-2.43e+02,5.52e+02
450,-7.00e+01,7.68e+00,8.23e+01,-2.16e+00,1.69e+02,-1.87e+02,4.56e+02
451,-1.21e+03,-5.19e+02,-5.19e+02,-7.69e+02,-9.54e+02,0.00e+00,2.23e+03
452,-9.01e+01,-3.86e+01,-3.86e+01,-1.13e+03,-9.76e+02,0.00e+00,2.58e+03
453,-2.76e+02,-2.00e+02,-4.08e+02,-5.08e+02,-8.45e+02,-2.18e+02,1.76e+03
454,-1.41e+03,-5.68e+02,-7.58e+02,-8.63e+02,-1.07e+03,-2.86e+02,2.55e+03
455,-8.89e+02,-8.17e+02,-5.35e+02,-8.15e+02,-8.31e+02,-1.59e+02,2.06e+03
456,-6.44e+01,-1.09e+02,-3.18e+02,-2.64e+02,-5.79e+02,-2.18e+02,1.19e+03
457,-3.18e+02,-9.99e+01,-2.89e+02,-3.66e+02,-6.85e+02,-2.86e+02,1.45e+03
458,-2.80e+02,-1.24e+02,-3.25e+02,-2.21e+02,-6.85e+02,-3.14e+02,1.37e+03
459,-3.31e+01,-2.28e+02,-1.78e+02,-3.87e+02,-4.95e+02,-3.59e+02,1.27e+03
460,-2.31e+02,3.13e+01,-3.41e+02,-2.90e+02,-6.51e+02,-2.87e+02,1.37e+03
461,-1.72e+01,-1.17e+01,-2.12e+02,1.82e+01,-3.09e+02,-3.14e+02,7.89e+02
462,7.37e+01,-1.82e+02,-1.32e+02,3.40e+01,-1.37e+02,-3.59e+02,7.09e+02
463,-4.38e+01,1.06e+02,1.09e+02,-1.91e+01,-1.37e+02,-4.45e+02,8.21e+02
464,-3.87e+01,-4.60e+00,1.85e+01,2.50e+01,-2.30e+02,-3.90e+02,7.86e+02
465,2.05e+02,-5.01e+01,4.25e+00,-6.14e+00,-1.80e+02,-3.17e+02,6.74e+02
466,8.52e+01,3.65e+01,3.65e+01,-8.39e+02,-1.05e+03,0.00e+00,2.33e+03
467,-9.01e+01,-3.86e+01,-3.86e+01,-1.13e+03,-9.76e+02,0.00e+00,2.58e+03
468,-3.70e+02,-4.19e+02,-5.02e+02,-7.16e+02,-8.45e+02,-4.66e+02,2.08e+03
469,-2.45e+02,-8.25e+02,-7.62e+02,-1.27e+03,-1.20e+03,-6.74e+02,3.29e+03
470,2.25e+02,4.68e+02,2.88e+02,-9.63e+02,-1.03e+03,-1.52e+02,2.47e+03
471,-1.58e+02,-3.28e+02,-4.11e+02,-4.72e+02,-5.79e+02,-4.66e+02,1.54e+03
472,1.62e+02,-6.51e+02,-5.88e+02,-6.59e+02,-6.27e+02,-6.74e+02,2.11e+03
473,1.94e+01,-2.05e+02,-6.20e+02,-3.46e+02,-4.85e+02,-8.82e+02,1.93e+03
474,-2.05e+02,-6.29e+02,-3.50e+02,-5.45e+02,-4.95e+02,-8.92e+02,2.04e+03
475,-1.07e+02,-8.46e+02,-7.40e+02,-5.75e+02,-5.69e+02,-7.06e+02,1.98e+03
476,4.10e+01,-1.95e+02,-6.11e+02,-8.60e+01,-1.15e+02,-8.82e+02,1.65e+03
477,-9.81e+01,-5.83e+02,-3.04e+02,-1.24e+02,-1.37e+02,-8.92e+02,1.63e+03
478,8.07e+00,2.27e+02,1.61e+02,-5.31e+01,-1.37e+02,-7.81e+02,1.39e+03
479,-1.01e+02,7.36e+01,-6.35e+01,5.89e+01,-3.90e+00,-8.57e+02,1.50e+03
480,-1.23e+02,-2.03e+02,-3.21e+02,1.45e+01,-3.74e+01,-9.96e+02,1.74e+03
481,8.52e+01,3.65e+01,3.65e+01,-8.39e+02,-1.05e+03,0.00e+00,2.33e+03
482,-5.22e+02,-2.24e+02,-2.24e+02,-1.76e+03,-2.02e+03,0.00e+00,4.64e+03
483,-5.39e+02,-6.65e+02,-1.69e+03,-8.04e+02,-1.58e+03,-1.06e+03,3.75e+03
484,-4.25e+02,-1.25e+03,-9.43e+02,-1.57e+03,-1.20e+03,-1.08e+03,3.96e+03
485,-1.40e+03,-2.04e+03,-2.08e+03,-1.37e+03,-1.61e+03,-7.85e+02,3.96e+03
486,-1.76e+02,-5.09e+02,-1.53e+03,-4.39e+02,-9.13e+02,-1.06e+03,2.82e+03
487,-1.91e+01,-1.07e+03,-7.68e+02,-9.54e+02,-6.27e+02,-1.08e+03,2.88e+03
488,2.11e+01,-2.01e+02,-6.18e+02,-3.73e+02,-4.85e+02,-1.08e+03,2.22e+03
489,-2.12e+02,-7.61e+02,-1.50e+03,-7.03e+02,-8.48e+02,-1.41e+03,3.29e+03
490,5.99e+02,-1.37e+02,-6.87e+02,-5.18e+02,-5.50e+02,-1.21e+03,2.71e+03
491,4.27e+01,-1.91e+02,-6.09e+02,-1.14e+02,-1.15e+02,-1.08e+03,1.97e+03
492,2.89e+02,-5.46e+02,-1.28e+03,-9.71e+01,-6.54e+01,-1.41e+03,2.80e+03
493,-1.65e+02,3.90e+02,-5.58e+02,4.87e+01,-2.80e+01,-1.06e+03,2.02e+03
494,-4.57e+01,2.02e+02,-8.33e+00,-1.04e+01,-3.90e+00,-1.13e+03,1.97e+03
495,-5.41e+01,5.10e+01,-4.99e+02,-6.87e+01,-1.49e+02,-9.59e+02,1.76e+03
496,-3.98e+02,-1.71e+02,-1.71e+02,-8.25e+02,-1.87e+03,0.00e+00,3.54e+03
497,-5.22e+02,-2.24e+02,-2.24e+02,-1.76e+03,-2.02e+03,0.00e+00,4.64e+03
498,-5.26e+02,-6.34e+02,-1.68e+03,-9.85e+02,-1.58e+03,-1.15e+03,3.95e+03
499,-2.64e+03,-1.01e+03,-3.19e+03,-1.73e+03,-3.18e+03,-1.17e+03,6.88e+03
500,2.67e+01,1.07e+03,1.63e+02,-1.28e+03,-1.96e+03,-3.25e+02,4.20e+03
501,-1.63e+02,-4.79e+02,-1.52e+03,-6.21e+02,-9.13e+02,-1.15e+03,3.02e+03
502,-1.12e+03,-3.55e+02,-2.54e+03,-1.26e+03,-1.36e+03,-1.17e+03,4.25e+03
503,-7.75e+02,-2.91e+02,-2.94e+03,-3.31e+02,-1.26e+03,-1.60e+03,4.33e+03
504,-2.17e+02,-7.73e+02,-1.50e+03,-1.03e+03,-8.48e+02,-1.73e+03,3.94e+03
505,-1.46e+03,-1.43e+03,-2.87e+03,-8.86e+02,-1.42e+03,-1.47e+03,4.12e+03
506,-4.37e+02,-1.46e+02,-2.79e+03,-7.57e+01,-2.94e+02,-1.60e+03,3.78e+03
507,2.84e+02,-5.58e+02,-1.29e+03,-4.24e+02,-6.54e+01,-1.73e+03,3.37e+03
508,3.57e+01,8.60e+02,-3.57e+02,4.26e+01,-2.80e+01,-8.55e+02,1.83e+03
509,-3.33e+02,8.40e+02,-8.20e+02,-1.36e+02,2.15e+02,-9.00e+02,2.19e+03
510,5.57e+02,-8.21e+01,-1.87e+03,-6.37e+01,2.10e+02,-1.64e+03,3.60e+03
511,-3.98e+02,-1.71e+02,-1.71e+02,-8.25e+02,-1.87e+03,0.00e+00,3.54e+03
512,-6.30e+03,-2.70e+03,-2.70e+03,-7.93e+02,-4.24e+03,0.00e+00,8.29e+03
513,-2.58e+03,-1.02e+03,-5.38e+03,-3.13e+02,-3.55e+03,-8.25e+02,7.39e+03
514,-2.29e+03,-1.95e+02,-2.84e+03,-2.47e+03,-3.18e+03,-1.66e+03,7.93e+03
515,-4.82e+03,-2.87e+03,-4.88e+03,-1.51e+03,-3.76e+03,-9.76e+02,7.48e+03
516,-1.63e+03,-6.16e+02,-4.97e+03,-3.05e+02,-1.75e+03,-8.25e+02,5.20e+03
517,-7.72e+02,4.56e+02,-2.19e+03,-2.00e+03,-1.36e+03,-1.66e+03,5.58e+03
518,-5.67e+02,1.94e+02,-2.73e+03,-2.69e+02,-1.26e+03,-1.26e+03,4.08e+03
519,-2.93e+03,4.17e+02,-5.94e+03,-1.53e+03,-2.59e+03,-1.52e+03,8.03e+03
520,9.09e+02,1.53e+03,-3.06e+03,-1.10e+03,-1.09e+03,-1.33e+03,5.58e+03
521,-2.29e+02,3.39e+02,-2.59e+03,-1.40e+01,-2.94e+02,-1.26e+03,3.50e+03
522,-1.85e+02,1.59e+03,-4.77e+03,-1.35e+03,9.63e+02,-1.52e+03,6.89e+03
523,-3.80e+02,7.67e+02,-6.13e+02,-3.48e+02,-7.14e+02,-2.38e+02,1.92e+03
524,-1.84e+02,1.19e+03,-6.70e+02,-2.40e+02,2.15e+02,-2.90e+02,1.83e+03
525,-1.29e+03,1.25e+03,-1.24e+03,-1.93e+02,-2.07e+02,-4.10e+02,2.66e+03
526,-1.33e+03,-5.71e+02,-5.71e+02,5.50e+02,-1.77e+03,0.00e+00,3.30e+03
527,-6.30e+03,-2.70e+03,-2.70e+03,-7.93e+02,-4.24e+03,0.00e+00,8.29e+03
528,-2.43e+03,-6.84e+02,-5.23e+03,-3.01e+02,-3.55e+03,-8.97e+01,7.34e+03
529,-4.58e+03,5.59e+02,-4.23e+03,1.07e+03,-3.96e+03,1.01e+03,8.85e+03
530,-4.52e+03,-1.22e+03,-4.40e+03,4.70e+02,-3.60e+03,4.70e+02,7.12e+03
531,-1.48e+03,-2.76e+02,-4.82e+03,-2.93e+02,-1.75e+03,-8.97e+01,5.11e+03
532,-3.12e+03,1.19e+03,-3.60e+03,4.81e+02,-1.64e+03,1.01e+03,5.72e+03
533,-1.40e+03,6.35e+01,-4.13e+03,-3.16e+02,-2.02e+03,6.72e+02,5.25e+03
534,-2.55e+03,1.28e+03,-5.57e+03,-1.19e+02,-2.59e+03,4.64e+02,7.50e+03
535,-1.33e+03,1.07e+03,-4.15e+03,6.89e+01,-1.79e+03,4.20e+02,5.54e+03
536,-7.63e+02,3.35e+02,-3.86e+03,-3.76e+02,-7.46e+02,6.72e+02,4.20e+03
537,1.86e+02,2.46e+03,-4.40e+03,5.99e+01,9.63e+02,4.64e+02,6.33e+03
538,-3.70e+02,7.92e+02,-6.03e+02,1.50e+02,-7.14e+02,-2.39e+01,1.81e+03
539,-5.11e+01,1.43e+03,-5.25e+02,-1.27e+03,3.45e+02,9.53e+01,2.89e+03
540,3.36e+02,2.07e+03,-1.67e+03,-6.95e+02,-1.53e+02,-1.31e+02,3.47e+03
541,-1.33e+03,-5.71e+02,-5.71e+02,5.50e+02,-1.77e+03,0.00e+00,3.30e+03
542,-2.21e+03,-9.48e+02,-9.48e+02,2.14e+03,-1.35e+03,0.00e+00,4.57e+03
543,-8.16e+02,-8.58e+01,-1.68e+03,1.08e+03,-1.14e+03,1.96e+03,4.57e+03
544,-4.61e+03,4.99e+02,-4.26e+03,1.27e+03,-3.96e+03,1.62e+03,9.18e+03
545,-5.17e+02,1.82e+03,8.42e+02,1.24e+03,-1.66e+03,8.37e+02,4.38e+03
546,-4.92e+02,5.31e+01,-1.54e+03,4.81e+02,-5.38e+02,1.96e+03,3.88e+03
547,-3.14e+03,1.13e+03,-3.63e+03,6.84e+02,-1.64e+03,1.62e+03,6.16e+03
548,-1.51e+03,-2.09e+02,-4.25e+03,1.29e+02,-2.02e+03,1.54e+03,5.68e+03
549,-9.62e+02,7.63e+02,-1.72e+03,5.00e+02,-8.53e+02,2.36e+03,4.95e+03
550,-2.94e+03,3.48e+01,-3.89e+03,3.83e+02,-1.84e+03,2.03e+03,5.96e+03
551,-8.80e+02,6.19e+01,-3.98e+03,6.91e+01,-7.46e+02,1.54e+03,4.71e+03
552,1.16e+02,1.23e+03,-1.26e+03,5.87e+01,3.07e+02,2.36e+03,4.65e+03
553,4.27e+01,6.96e+02,2.74e+01,-4.71e+02,-2.73e+02,7.40e+02,1.72e+03
554,-2.42e+02,9.83e+02,-7.16e+02,3.39e+02,3.45e+02,7.97e+02,2.22e+03
555,1.01e+03,2.56e+02,-2.12e+03,4.78e+01,2.32e+02,1.66e+03,4.05e+03
556,4.88e+02,2.09e+02,2.09e+02,1.10e+03,6.37e+02,0.00e+00,2.22e+03
557,-2.21e+03,-9.48e+02,-9.48e+02,2.14e+03,-1.35e+03,0.00e+00,4.57e+03
558,-8.90e+02,-2.59e+02,-1.76e+03,1.06e+03,-1.14e+03,2.19e+03,4.83e+03
559,1.70e+03,-1.74e+02,1.54e+03,2.55e+03,1.44e+03,2.50e+03,6.91e+03
560,-2.75e+03,-3.13e+03,-3.92e+03,1.94e+03,-6.79e+02,1.26e+03,4.31e+03
561,-5.66e+02,-1.20e+02,-1.62e+03,4.63e+02,-5.38e+02,2.19e+03,4.20e+03
562,1.13e+03,-4.19e+02,1.30e+03,1.35e+03,5.68e+02,2.50e+03,5.27e+03
563,6.43e+02,2.52e+02,1.57e+03,7.20e+01,7.16e+02,2.26e+03,4.26e+03
564,-1.22e+03,1.53e+02,-1.98e+03,7.96e+02,-8.53e+02,2.81e+03,5.59e+03
565,2.15e+03,8.40e+02,1.14e+03,6.62e+02,7.37e+02,2.56e+03,4.90e+03
566,3.95e+02,1.46e+02,1.46e+03,-1.43e+02,2.59e+02,2.26e+03,4.12e+03
567,-1.46e+02,6.15e+02,-1.52e+03,3.54e+02,3.07e+02,2.81e+03,5.27e+03
568,-3.44e+02,-2.05e+02,-3.59e+02,-3.07e+02,-2.73e+02,7.97e+02,1.56e+03
569,2.66e+02,-1.02e+02,2.74e+02,-2.53e+02,-1.40e+02,8.55e+02,1.61e+03
570,-1.16e+03,1.08e+03,1.13e+03,-2.80e+02,-3.65e+02,1.73e+03,3.85e+03
571,4.88e+02,2.09e+02,2.09e+02,1.10e+03,6.37e+02,0.00e+00,2.22e+03
572,5.60e+03,2.40e+03,2.40e+03,1.05e+03,3.44e+03,0.00e+00,7.01e+03
573,2.20e+03,5.33e+02,4.39e+03,5.54e+02,2.90e+03,1.48e+03,6.62e+03
574,1.66e+03,-2.67e+02,1.50e+03,2.53e+03,1.44e+03,2.34e+03,6.73e+03
575,4.77e+03,2.98e+03,5.36e+03,1.69e+03,2.65e+03,1.15e+03,6.17e+03
576,1.39e+03,1.86e+02,4.04e+03,2.30e+02,1.39e+03,1.48e+03,4.92e+03
577,1.09e+03,-5.12e+02,1.26e+03,1.32e+03,5.68e+02,2.34e+03,5.06e+03
578,4.15e+02,-2.79e+02,1.34e+03,-5.60e+01,7.16e+02,1.97e+03,3.90e+03
579,2.78e+03,-1.02e+03,4.82e+03,6.10e+02,2.21e+03,2.17e+03,7.50e+03
580,-6.40e+02,-1.32e+03,1.72e+03,6.06e+02,5.25e+02,2.04e+03,4.69e+03
581,1.67e+02,-3.85e+02,1.23e+03,-2.71e+02,2.59e+02,1.97e+03,3.76e+03
582,1.62e+02,-2.14e+03,3.70e+03,6.24e+02,-7.85e+02,2.17e+03,6.56e+03
583,4.83e+02,-3.23e+02,5.60e+02,-3.34e+01,7.31e+02,5.41e+02,1.79e+03
584,-2.22e+01,-7.75e+02,-1.44e+01,-7.14e+02,-1.40e+02,7.01e+02,1.91e+03
585,9.58e+02,-1.85e+03,2.69e+02,-4.35e+02,3.93e+02,1.14e+03,3.37e+03
586,1.59e+03,6.83e+02,6.83e+02,-2.60e+02,2.26e+03,0.00e+00,4.04e+03
587,5.60e+03,2.40e+03,2.40e+03,1.05e+03,3.44e+03,0.00e+00,7.01e+03
588,2.16e+03,4.42e+02,4.35e+03,5.84e+02,2.90e+03,8.95e+02,6.33e+03
589,5.14e+03,-4.32e+02,4.96e+03,-6.68e+02,4.72e+03,1.38e+02,9.92e+03
590,3.52e+03,3.70e+02,2.45e+03,-8.14e+01,3.33e+03,5.23e+01,6.40e+03
591,1.35e+03,9.49e+01,4.00e+03,2.61e+02,1.39e+03,8.95e+02,4.51e+03
592,3.65e+03,-1.07e+03,4.32e+03,-7.49e+02,2.06e+03,1.38e+02,6.35e+03
593,1.61e+03,1.27e+02,5.05e+03,7.23e+01,2.45e+03,7.35e+01,6.10e+03
594,2.60e+03,-1.43e+03,4.65e+03,-3.50e+02,2.21e+03,8.32e+02,6.77e+03
595,2.06e+03,-1.22e+03,4.83e+03,-2.85e+02,2.13e+03,6.01e+02,6.52e+03
596,9.27e+02,-1.66e+02,4.76e+03,2.08e+02,9.43e+02,7.35e+01,4.78e+03
597,-1.37e+01,-2.55e+03,3.52e+03,-3.35e+02,-7.85e+02,8.32e+02,5.68e+03
598,2.70e+02,-8.18e+02,3.48e+02,-4.70e+02,7.31e+02,4.68e+02,2.05e+03
599,-1.27e+02,-1.48e+03,1.50e+03,5.11e+02,-1.33e+02,6.90e+02,2.99e+03
600,-3.55e+02,-1.55e+03,2.06e+03,3.13e+02,4.71e+01,8.77e+02,3.57e+03
601,1.59e+03,6.83e+02,6.83e+02,-2.60e+02,2.26e+03,0.00e+00,4.04e+03
602,2.42e+03,1.04e+03,1.04e+03,-1.84e+03,3.03e+03,0.00e+00,6.30e+03
603,1.19e+03,3.59e+02,2.93e+03,-9.79e+02,2.41e+03,-1.28e+03,5.51e+03
604,5.51e+03,4.41e+02,5.33e+03,-1.18e+03,4.72e+03,-9.53e+02,9.93e+03
605,1.50e+03,-9.62e+02,1.01e+03,-9.53e+02,2.74e+03,-3.35e+02,5.54e+03
606,5.63e+02,9.13e+01,2.66e+03,-7.26e+02,1.27e+03,-1.28e+03,4.11e+03
607,4.02e+03,-1.98e+02,4.69e+03,-1.26e+03,2.06e+03,-9.53e+02,6.43e+03
608,1.74e+03,4.22e+02,5.18e+03,-4.69e+02,2.45e+03,-1.03e+03,6.32e+03
609,1.16e+03,-5.55e+02,2.74e+03,-1.45e+03,1.55e+03,-1.82e+03,5.63e+03
610,3.40e+03,8.46e+02,4.79e+03,-1.02e+03,2.38e+03,-1.41e+03,6.17e+03
611,1.05e+03,1.30e+02,4.89e+03,-3.34e+02,9.43e+02,-1.03e+03,5.03e+03
612,-4.85e+02,-1.26e+03,2.03e+03,-1.10e+03,4.47e+00,-1.82e+03,4.74e+03
613,2.12e+02,-9.49e+02,9.17e+02,5.06e+01,3.58e+02,-5.50e+02,1.99e+03
614,-4.59e+01,-1.29e+03,1.58e+03,-1.27e+03,-1.33e+02,-6.95e+02,3.55e+03
615,-1.56e+03,-1.18e+03,2.70e+03,-7.75e+02,-2.53e+01,-1.37e+03,4.91e+03
616,2.83e+01,1.21e+01,1.21e+01,-9.28e+02,1.45e+03,0.00e+00,2.98e+03
617,2.42e+03,1.04e+03,1.04e+03,-1.84e+03,3.03e+03,0.00e+00,6.30e+03
618,1.36e+03,7.68e+02,3.10e+03,-7.22e+02,2.41e+03,-1.36e+03,5.38e+03
619,1.08e+03,1.38e+03,1.78e+03,-2.13e+03,1.96e+03,-1.48e+03,5.67e+03
620,2.79e+03,2.85e+03,3.41e+03,-1.67e+03,2.53e+03,-1.04e+03,5.58e+03
621,7.38e+02,5.00e+02,2.83e+03,-4.69e+02,1.27e+03,-1.36e+03,3.99e+03
622,2.69e+02,1.03e+03,1.43e+03,-1.32e+03,9.17e+02,-1.48e+03,3.93e+03
623,1.16e+02,1.03e+02,1.43e+03,-3.97e+02,7.27e+02,-1.35e+03,3.04e+03
624,1.62e+03,5.26e+02,3.20e+03,-9.68e+02,1.55e+03,-1.59e+03,4.81e+03
625,-6.52e+02,-1.34e+02,1.65e+03,-6.77e+02,7.29e+02,-1.52e+03,3.78e+03
626,6.16e-01,5.41e+01,1.38e+03,-1.18e+02,1.52e+02,-1.35e+03,2.72e+03
627,-2.18e+01,-1.77e+02,2.50e+03,-6.12e+02,4.47e+00,-1.59e+03,3.94e+03
628,3.91e+02,-5.31e+02,1.10e+03,-4.10e+01,3.58e+02,-9.39e+02,2.24e+03
629,1.51e+02,-4.47e+02,3.91e+02,-1.86e+02,-6.25e+01,-1.05e+03,2.00e+03
630,8.52e+02,-3.34e+02,1.13e+03,-1.89e+02,3.08e+02,-9.83e+02,2.26e+03
631,2.83e+01,1.21e+01,1.21e+01,-9.28e+02,1.45e+03,0.00e+00,2.98e+03
632,-3.34e+01,-1.43e+01,-1.43e+01,-1.44e+03,1.33e+03,0.00e+00,3.40e+03
633,2.90e+02,5.94e+02,8.84e+02,-8.72e+02,1.09e+03,-8.55e+02,2.88e+03
634,9.78e+02,1.14e+03,1.67e+03,-1.65e+03,1.96e+03,-1.06e+03,4.85e+03
635,-3.95e+02,-8.21e+02,-4.91e+02,-1.19e+03,1.38e+03,-2.62e+02,3.22e+03
636,6.68e+01,4.98e+02,7.88e+02,-5.75e+02,6.96e+02,-8.55e+02,2.24e+03
637,1.66e+02,7.94e+02,1.32e+03,-8.41e+02,9.17e+02,-1.06e+03,3.00e+03
638,2.04e+02,3.10e+02,1.51e+03,-3.61e+02,7.27e+02,-1.36e+03,3.01e+03
639,1.12e+01,8.39e+02,6.87e+02,-7.04e+02,5.69e+02,-1.39e+03,2.98e+03
640,4.17e+02,1.18e+03,1.55e+03,-7.09e+02,8.79e+02,-1.16e+03,2.98e+03
641,8.92e+01,2.61e+02,1.46e+03,-8.23e+01,1.52e+02,-1.36e+03,2.70e+03
642,-8.84e+01,7.96e+02,6.44e+02,-1.92e+02,1.06e+02,-1.39e+03,2.58e+03
643,-4.87e+01,-4.57e+02,-1.85e+01,-2.19e+01,4.64e+01,-9.70e+02,1.74e+03
644,2.11e+02,-3.07e+02,4.51e+02,1.11e+02,-6.25e+01,-1.08e+03,2.00e+03
645,-9.36e+01,3.33e+02,9.12e+02,4.06e+01,-9.99e+01,-1.44e+03,2.66e+03
646,1.45e+02,6.23e+01,6.23e+01,-7.34e+02,8.74e+02,0.00e+00,1.98e+03
647,-3.34e+01,-1.43e+01,-1.43e+01,-1.44e+03,1.33e+03,0.00e+00,3.40e+03
648,2.53e+02,5.08e+02,8.47e+02,-7.33e+02,1.09e+03,-6.65e+02,2.60e+03
649,4.83e+02,8.63e+02,5.73e+02,-1.16e+03,9.34e+02,-6.96e+02,2.87e+03
650,7.84e+02,1.34e+03,1.14e+03,-1.07e+03,1.08e+03,-4.86e+02,2.81e+03
651,3.01e+01,4.13e+02,7.52e+02,-4.36e+02,6.96e+02,-6.65e+02,1.93e+03
652,1.86e+02,7.36e+02,4.46e+02,-7.10e+02,5.69e+02,-6.96e+02,2.04e+03
653,1.66e+02,2.18e+02,3.04e+02,-3.77e+02,5.03e+02,-7.27e+02,1.67e+03
654,-1.30e+02,5.09e+02,5.45e+02,-5.47e+02,5.69e+02,-9.38e+02,2.22e+03
655,-1.93e+02,1.65e+02,3.13e+02,-4.64e+02,5.53e+02,-7.98e+02,1.92e+03
656,4.43e+01,1.66e+02,2.53e+02,-1.14e+02,1.79e+02,-7.27e+02,1.32e+03
657,-2.30e+02,4.66e+02,5.02e+02,-3.54e+01,1.06e+02,-9.38e+02,1.79e+03
658,4.59e+01,-2.37e+02,7.61e+01,-8.41e+00,4.64e+01,-8.43e+02,1.49e+03
659,4.74e+01,-8.53e+01,-1.14e+02,-4.16e+01,1.04e+02,-8.54e+02,1.50e+03
660,-1.23e+02,6.67e+01,1.33e+02,-7.51e+01,1.28e+02,-7.07e+02,1.27e+03
661,1.45e+02,6.23e+01,6.23e+01,-7.34e+02,8.74e+02,0.00e+00,1.98e+03
662,1.50e+03,6.44e+02,6.44e+02,-1.11e+03,1.08e+03,0.00e+00,2.82e+03
663,1.15e+03,3.70e+02,7.35e+02,-5.97e+02,1.04e+03,-1.77e+02,2.21e+03
664,2.62e+02,3.48e+02,3.53e+02,-8.47e+02,9.34e+02,-2.74e+02,2.24e+03
665,7.15e+02,-7.14e+01,4.13e+02,-7.62e+02,1.14e+03,-7.29e+01,2.47e+03
666,3.48e+02,2.48e+01,3.90e+02,-2.54e+02,7.50e+02,-1.77e+02,1.45e+03
667,-3.50e+01,2.21e+02,2.26e+02,-3.93e+02,5.69e+02,-2.74e+02,1.31e+03
668,1.13e+02,9.50e+01,2.52e+02,-2.69e+02,5.03e+02,-3.92e+02,1.21e+03
669,3.13e+02,3.01e+02,3.31e+02,-3.26e+02,6.58e+02,-3.61e+02,1.42e+03
670,3.43e+01,3.47e+02,2.65e+02,-3.44e+02,5.72e+02,-3.03e+02,1.30e+03
671,-8.30e+00,4.31e+01,2.00e+02,-5.57e+00,1.79e+02,-3.92e+02,7.69e+02
672,3.48e+01,1.81e+02,2.12e+02,2.15e+01,2.41e+02,-3.61e+02,7.71e+02
673,1.14e+01,-1.03e+02,-4.27e+01,1.50e+00,2.72e+02,-4.07e+02,8.54e+02
674,7.54e+01,-2.01e+01,-8.63e+01,1.77e+01,1.04e+02,-4.03e+02,7.35e+02
675,1.87e+02,2.76e+01,1.51e+02,3.57e+01,2.00e+02,-4.54e+02,8.74e+02
676,-9.01e+01,-3.86e+01,-3.86e+01,-1.13e+03,-9.76e+02,0.00e+00,2.58e+03
677,-1.86e+03,-7.97e+02,-7.97e+02,-1.52e+03,-1.08e+03,0.00e+00,3.40e+03
678,-1.38e+03,-5.35e+02,-6.81e+02,-8.63e+02,-1.15e+03,-2.48e+02,2.64e+03
679,-3.39e+02,-6.28e+02,-2.57e+02,-1.31e+03,-9.62e+02,-3.98e+02,2.91e+03
680,-7.96e+02,8.55e+01,-3.26e+02,-1.11e+03,-1.24e+03,-1.19e+02,2.99e+03
681,-2.85e+02,-6.69e+01,-2.12e+02,-3.66e+02,-7.68e+02,-2.48e+02,1.55e+03
682,8.25e+01,-4.48e+02,-7.66e+01,-5.15e+02,-5.39e+02,-3.98e+02,1.54e+03
683,1.16e+01,-1.83e+02,-7.40e+01,-3.87e+02,-4.65e+02,-4.63e+02,1.33e+03
684,-3.11e+02,-4.60e+02,-5.45e+01,-4.34e+02,-6.22e+02,-4.68e+02,1.58e+03
685,4.73e+01,-4.69e+02,-4.18e+01,-4.92e+02,-5.50e+02,-3.87e+02,1.52e+03
686,1.18e+02,-1.37e+02,-2.82e+01,3.40e+01,-1.08e+02,-4.63e+02,8.55e+02
687,-6.11e+00,-3.29e+02,7.62e+01,4.23e+01,-2.12e+02,-4.68e+02,9.67e+02
688,9.36e+01,1.28e+02,3.27e+02,2.50e+01,-2.14e+02,-4.53e+02,8.95e+02
689,-1.11e+02,6.81e+00,2.53e+02,1.04e+02,-8.03e+01,-4.58e+02,8.86e+02
690,-1.42e+02,-1.33e+02,4.49e+01,9.68e+01,-1.29e+02,-5.44e+02,1.00e+03
691,-9.01e+01,-3.86e+01,-3.86e+01,-1.13e+03,-9.76e+02,0.00e+00,2.58e+03
692,-2.75e+02,-1.18e+02,-1.18e+02,-2.28e+03,-1.55e+03,0.00e+00,4.78e+03
693,-3.65e+02,-9.46e+02,-1.04e+03,-1.27e+03,-1.39e+03,-9.91e+02,3.75e+03
694,-7.74e+02,-1.64e+03,-6.92e+02,-1.77e+03,-9.62e+02,-9.92e+02,3.99e+03
695,-1.26e+03,-2.12e+03,-1.64e+03,-1.73e+03,-1.29e+03,-7.21e+02,4.00e+03
696,4.12e+01,-7.72e+02,-8.69e+02,-6.59e+02,-8.21e+02,-9.91e+02,2.65e+03
697,-3.52e+02,-1.46e+03,-5.12e+02,-9.76e+02,-5.39e+02,-9.92e+02,2.79e+03
698,-1.60e+02,-5.84e+02,-2.46e+02,-5.45e+02,-4.65e+02,-9.96e+02,2.16e+03
699,-5.78e+01,-1.23e+03,-4.61e+02,-8.50e+02,-5.82e+02,-1.25e+03,2.99e+03
700,3.35e+02,-6.42e+02,-2.44e+02,-6.14e+02,-5.70e+02,-1.13e+03,2.57e+03
701,-5.35e+01,-5.38e+02,-2.00e+02,-1.24e+02,-1.08e+02,-9.96e+02,1.80e+03
702,2.74e+02,-1.09e+03,-3.19e+02,1.64e+02,-5.55e+01,-1.25e+03,2.49e+03
703,5.04e+01,2.25e+02,2.90e+02,5.89e+01,7.11e+01,-9.28e+02,1.63e+03
704,-8.94e+01,5.83e+01,2.76e+02,-4.96e+01,-8.03e+01,-9.12e+02,1.62e+03
705,1.42e+02,-1.10e+02,2.48e+02,-3.68e+01,-8.88e+00,-8.06e+02,1.43e+03
706,-5.22e+02,-2.24e+02,-2.24e+02,-1.76e+03,-2.02e+03,0.00e+00,4.64e+03
707,-2.75e+02,-1.18e+02,-1.18e+02,-2.28e+03,-1.55e+03,0.00e+00,4.78e+03
708,-5.46e+02,-1.37e+03,-1.22e+03,-1.57e+03,-1.39e+03,-1.40e+03,4.43e+03
709,-2.76e+03,-2.70e+03,-2.25e+03,-3.18e+03,-2.59e+03,-1.52e+03,7.58e+03
710,2.20e+02,8.85e+02,8.34e+02,-2.05e+03,-1.76e+03,-4.12e+02,4.77e+03
711,-1.40e+02,-1.19e+03,-1.05e+03,-9.54e+02,-8.21e+02,-1.40e+03,3.40e+03
712,-1.08e+03,-1.98e+03,-1.53e+03,-1.54e+03,-1.45e+03,-1.52e+03,4.58e+03
713,-4.78e+02,-1.03e+03,-2.12e+03,-7.03e+02,-1.12e+03,-2.12e+03,4.57e+03
714,-5.26e+02,-2.32e+03,-9.29e+02,-1.37e+03,-5.82e+02,-2.11e+03,4.76e+03
715,-1.49e+03,-2.66e+03,-2.40e+03,-1.42e+03,-1.22e+03,-1.84e+03,4.67e+03
716,2.36e+01,-8.11e+02,-1.90e+03,-9.71e+01,-3.40e+02,-2.12e+03,4.09e+03
717,-1.94e+02,-2.18e+03,-7.87e+02,-3.58e+02,-5.55e+01,-2.11e+03,4.10e+03
718,1.06e+02,3.54e+02,3.45e+02,-1.04e+01,7.11e+01,-1.20e+03,2.10e+03
719,-4.56e+02,7.87e+00,-1.57e+02,2.46e+02,1.86e+01,-1.30e+03,2.33e+03
720,4.91e+02,-1.26e+03,-1.09e+03,1.73e+02,1.47e+02,-2.11e+03,4.04e+03
721,-5.22e+02,-2.24e+02,-2.24e+02,-1.76e+03,-2.02e+03,0.00e+00,4.64e+03
722,-7.85e+03,-3.36e+03,-3.36e+03,-3.65e+03,-4.38e+03,0.00e+00,1.08e+04
723,-3.36e+03,-1.73e+03,-4.88e+03,-1.73e+03,-4.26e+03,-2.54e+03,9.50e+03
724,-3.10e+03,-3.48e+03,-2.59e+03,-4.29e+03,-2.59e+03,-2.63e+03,9.83e+03
725,-6.85e+03,-6.03e+03,-6.43e+03,-3.58e+03,-4.07e+03,-1.77e+03,9.90e+03
726,-1.85e+03,-1.08e+03,-4.23e+03,-1.26e+03,-2.44e+03,-2.54e+03,7.08e+03
727,-1.42e+03,-2.76e+03,-1.87e+03,-2.66e+03,-1.45e+03,-2.63e+03,7.04e+03
728,-4.83e+02,-1.04e+03,-2.12e+03,-1.03e+03,-1.12e+03,-2.44e+03,5.19e+03
729,-5.85e+03,-2.96e+03,-5.07e+03,-2.78e+03,-3.03e+03,-2.51e+03,8.74e+03
730,8.27e+02,-6.25e+02,-2.09e+03,-1.41e+03,-1.27e+03,-2.63e+03,6.16e+03
731,1.81e+01,-8.24e+02,-1.91e+03,-4.24e+02,-3.40e+02,-2.44e+03,4.65e+03
732,-6.79e+02,-7.38e+02,-2.85e+03,-1.99e+03,-1.46e+03,-2.51e+03,6.47e+03
733,-1.13e+03,4.29e+01,-2.68e+03,-1.36e+02,-1.26e+03,-1.70e+03,4.36e+03
734,-1.05e+03,-1.38e+03,-7.53e+02,-1.20e+03,1.86e+01,-1.82e+03,3.81e+03
735,-3.72e+03,-1.39e+03,-2.62e+03,-1.15e+03,-1.15e+03,-1.93e+03,4.80e+03
736,-6.30e+03,-2.70e+03,-2.70e+03,-7.93e+02,-4.24e+03,0.00e+00,8.29e+03
737,-7.85e+03,-3.36e+03,-3.36e+03,-3.65e+03,-4.38e+03,0.00e+00,1.08e+04
738,-3.02e+03,-9.21e+02,-4.54e+03,-2.47e+03,-4.26e+03,-3.04e+03,1.05e+04
739,-1.59e+04,-2.09e+03,-8.15e+03,-3.53e+03,-8.13e+03,-1.35e+03,1.96e+04
740,-5.38e+03,1.05e+03,-1.45e+03,-2.04e+03,-4.49e+03,-1.13e+03,1.04e+04
741,-1.50e+03,-2.71e+02,-3.89e+03,-2.00e+03,-2.44e+03,-3.04e+03,8.23e+03
742,-1.63e+04,-2.23e+03,-8.30e+03,-3.76e+03,-6.76e+03,-1.35e+03,1.83e+04
743,-5.60e+03,-2.26e+03,-1.22e+04,-1.53e+03,-7.29e+03,-2.61e+03,1.62e+04
744,-4.67e+03,-2.05e+02,-3.89e+03,-5.57e+03,-3.03e+03,-5.18e+03,1.48e+04
745,-1.37e+04,-5.10e+03,-1.21e+04,-4.06e+03,-6.52e+03,-3.73e+03,1.68e+04
746,-2.86e+03,-1.09e+03,-1.10e+04,-1.35e+03,-3.74e+03,-2.61e+03,1.23e+04
747,5.00e+02,2.01e+03,-1.67e+03,-4.78e+03,-1.46e+03,-5.18e+03,1.29e+04
748,-9.81e+02,3.91e+02,-2.53e+03,-2.40e+02,-1.26e+03,-1.09e+03,3.86e+03
749,-9.28e+02,7.77e+02,-2.90e+03,-5.20e+03,-8.56e+02,-1.10e+03,9.86e+03
750,5.75e+03,2.21e+03,-5.57e+03,-2.84e+03,-9.48e+02,-2.97e+03,1.24e+04
751,-6.30e+03,-2.70e+03,-2.70e+03,-7.93e+02,-4.24e+03,0.00e+00,8.29e+03
752,-1.63e+04,-6.97e+03,-6.97e+03,1.74e+03,-5.73e+03,0.00e+00,1.39e+04
753,-6.04e+03,-8.98e+02,-7.63e+03,1.07e+03,-5.92e+03,1.78e+03,1.25e+04
754,-1.51e+04,-1.86e+02,-7.34e+03,-1.03e+03,-8.13e+03,-5.85e+02,1.92e+04
755,-1.06e+04,-2.07e+03,-5.42e+03,-7.11e+02,-6.17e+03,4.38e+02,1.31e+04
756,-4.58e+03,-2.71e+02,-7.00e+03,4.81e+02,-3.60e+03,1.78e+03,9.16e+03
757,-1.54e+04,-3.29e+02,-7.48e+03,-1.26e+03,-6.76e+03,-5.85e+02,1.77e+04
758,-5.23e+03,-1.39e+03,-1.18e+04,-1.19e+02,-7.29e+03,-6.16e+02,1.56e+04
759,-1.15e+04,1.07e+03,-7.85e+03,5.60e+01,-5.48e+03,2.56e+03,1.53e+04
760,-1.08e+04,9.88e+01,-1.09e+04,5.53e+02,-6.25e+03,1.30e+03,1.56e+04
761,-2.49e+03,-2.20e+02,-1.06e+04,5.99e+01,-3.74e+03,-6.16e+02,1.15e+04
762,-6.06e+03,3.40e+03,-5.52e+03,-3.10e+02,-3.21e+03,2.56e+03,1.16e+04
763,-2.54e+03,-1.06e+03,-6.33e+03,-1.27e+03,-4.60e+03,-5.73e+02,9.57e+03
764,-6.79e+02,1.36e+03,-2.66e+03,1.30e+02,-8.56e+02,-1.78e+03,4.89e+03
765,-3.00e+03,-2.66e+02,-9.20e+03,-3.90e+02,-3.29e+03,-1.22e+02,9.78e+03
766,-2.21e+03,-9.48e+02,-9.48e+02,2.14e+03,-1.35e+03,0.00e+00,4.57e+03
767,-1.63e+04,-6.97e+03,-6.97e+03,1.74e+03,-5.73e+03,0.00e+00,1.39e+04
768,-6.06e+03,-9.58e+02,-7.66e+03,1.27e+03,-5.92e+03,2.39e+03,1.28e+04
769,-5.34e+03,1.16e+02,-2.40e+03,5.25e+03,-2.70e+03,3.93e+03,1.32e+04
770,-1.17e+04,-6.11e+03,-1.01e+04,3.61e+03,-5.21e+03,1.66e+03,1.24e+04
771,-4.60e+03,-3.31e+02,-7.03e+03,6.84e+02,-3.60e+03,2.39e+03,9.59e+03
772,-5.28e+03,1.44e+02,-2.37e+03,2.77e+03,-2.19e+03,3.93e+03,1.03e+04
773,-1.75e+03,-2.50e+01,-3.56e+03,5.00e+02,-2.44e+03,3.50e+03,8.04e+03
774,-1.19e+04,2.14e+02,-8.22e+03,2.57e+03,-5.48e+03,2.36e+03,1.55e+04
775,-1.23e+03,1.71e+03,-3.46e+03,1.21e+03,-2.16e+03,3.12e+03,8.24e+03
776,-6.72e+02,4.37e+02,-3.09e+03,5.87e+01,-1.28e+03,3.50e+03,7.17e+03
777,-6.42e+03,2.54e+03,-5.89e+03,2.21e+03,-3.21e+03,2.36e+03,1.18e+04
778,-2.73e+03,-1.51e+03,-6.53e+03,3.39e+02,-4.60e+03,1.29e+02,9.19e+03
779,-1.18e+03,-6.88e+02,-1.25e+03,8.93e+02,-4.35e+02,1.41e+03,3.03e+03
780,-8.47e+03,4.55e+02,-5.34e+03,9.44e+02,-3.53e+03,2.30e+03,1.08e+04
781,-2.21e+03,-9.48e+02,-9.48e+02,2.14e+03,-1.35e+03,0.00e+00,4.57e+03
782,5.96e+03,2.55e+03,2.55e+03,3.97e+03,2.05e+03,0.00e+00,8.46e+03
783,2.21e+03,3.39e+02,2.74e+03,2.55e+03,2.14e+03,4.04e+03,9.33e+03
784,-5.37e+03,5.91e+01,-2.42e+03,5.78e+03,-2.70e+03,3.76e+03,1.37e+04
785,5.14e+03,5.60e+03,6.91e+03,4.03e+03,1.32e+03,2.18e+03,8.41e+03
786,1.64e+03,9.31e+01,2.49e+03,1.35e+03,1.28e+03,4.04e+03,7.99e+03
787,-5.30e+03,8.70e+01,-2.39e+03,3.31e+03,-2.19e+03,3.76e+03,1.06e+04
788,-2.01e+03,-6.36e+02,-3.82e+03,7.96e+02,-2.44e+03,3.95e+03,8.61e+03
789,4.57e+03,4.04e+02,3.19e+03,3.91e+03,1.99e+03,4.59e+03,1.16e+04
790,-6.90e+03,-2.61e+03,-3.90e+03,2.39e+03,-1.98e+03,4.52e+03,1.02e+04
791,-9.34e+02,-1.74e+02,-3.36e+03,3.54e+02,-1.28e+03,3.95e+03,7.77e+03
792,2.34e+03,-5.51e+02,2.24e+03,2.63e+03,1.03e+03,4.59e+03,9.76e+03
793,1.07e+03,7.07e+02,2.16e+03,-2.53e+02,1.59e+03,3.67e+02,3.14e+03
794,-1.80e+02,1.63e+03,-2.51e+02,1.70e+03,-4.35e+02,4.77e+02,3.66e+03
795,7.03e+03,-4.25e+02,-5.85e+02,1.06e+03,1.24e+03,2.79e+03,9.39e+03
796,5.60e+03,2.40e+03,2.40e+03,1.05e+03,3.44e+03,0.00e+00,7.01e+03
797,5.96e+03,2.55e+03,2.55e+03,3.97e+03,2.05e+03,0.00e+00,8.46e+03
798,2.17e+03,2.46e+02,2.70e+03,2.53e+03,2.14e+03,3.89e+03,9.13e+03
799,1.35e+04,-3.20e+02,6.17e+03,3.44e+03,6.89e+03,2.06e+03,1.83e+04
800,3.08e+03,-2.65e+03,-1.38e+03,2.47e+03,2.79e+03,1.80e+03,8.86e+03
801,1.60e+03,5.16e-01,2.45e+03,1.32e+03,1.28e+03,3.89e+03,7.75e+03
802,1.36e+04,-2.41e+02,6.25e+03,2.13e+03,5.69e+03,2.06e+03,1.64e+04
803,4.89e+03,1.09e+03,9.75e+03,6.10e+02,6.31e+03,2.56e+03,1.40e+04
804,3.84e+03,-1.29e+03,2.46e+03,3.41e+03,1.99e+03,4.92e+03,1.19e+04
805,1.21e+04,2.14e+03,9.61e+03,2.33e+03,5.30e+03,3.97e+03,1.51e+04
806,2.27e+03,-3.16e+01,8.63e+03,6.24e+02,3.31e+03,2.56e+03,1.07e+04
807,1.61e+03,-2.25e+03,1.51e+03,2.12e+03,1.03e+03,4.92e+03,1.02e+04
808,7.87e+02,3.40e+01,1.87e+03,-7.14e+02,1.59e+03,2.14e+02,3.43e+03
809,9.04e+02,-2.72e+03,1.46e+03,1.83e+03,1.08e+03,-6.66e+02,5.51e+03
810,-3.68e+03,-2.09e+02,5.35e+03,1.00e+03,1.07e+03,2.12e+03,9.06e+03
811,5.60e+03,2.40e+03,2.40e+03,1.05e+03,3.44e+03,0.00e+00,7.01e+03
812,1.82e+04,7.82e+03,7.82e+03,-1.76e+03,7.00e+03,0.00e+00,1.63e+04
813,6.97e+03,1.40e+03,9.24e+03,-6.68e+02,7.03e+03,-6.37e+02,1.41e+04
814,1.35e+04,-3.33e+02,6.16e+03,1.70e+03,6.89e+03,2.15e+03,1.75e+04
815,1.24e+04,3.23e+03,8.54e+03,1.15e+03,6.73e+03,3.10e+02,1.43e+04
816,5.48e+03,7.66e+02,8.60e+03,-7.49e+02,4.36e+03,-6.37e+02,1.03e+04
817,1.36e+04,-2.54e+02,6.24e+03,3.92e+02,5.69e+03,2.15e+03,1.60e+04
818,4.72e+03,6.80e+02,9.58e+03,-3.50e+02,6.31e+03,1.22e+03,1.36e+04
819,1.23e+04,-6.50e+02,9.26e+03,-6.98e+02,6.18e+03,-9.77e+02,1.60e+04
820,9.06e+03,2.67e+02,9.48e+03,-1.01e+03,5.46e+03,8.57e+01,1.32e+04
821,2.10e+03,-4.41e+02,8.45e+03,-3.35e+02,3.31e+03,1.22e+03,1.00e+04
822,7.08e+03,-2.90e+03,7.01e+03,-6.36e+02,4.40e+03,-9.77e+02,1.27e+04
823,3.18e+03,1.83e+03,9.22e+03,5.11e+02,5.41e+03,-4.13e+02,1.16e+04
824,1.82e+03,-5.92e+02,2.37e+03,-1.61e+03,1.08e+03,1.77e+03,5.30e+03
825,4.84e+03,-1.09e+03,9.47e+03,-3.12e+02,4.34e+03,6.89e+02,1.19e+04
826,2.42e+03,1.04e+03,1.04e+03,-1.84e+03,3.03e+03,0.00e+00,6.30e+03
827,1.82e+04,7.82e+03,7.82e+03,-1.76e+03,7.00e+03,0.00e+00,1.63e+04
828,7.35e+03,2.28e+03,9.62e+03,-1.18e+03,7.03e+03,-1.73e+03,1.43e+04
829,7.14e+03,1.22e+03,4.05e+03,-5.31e+03,4.95e+03,-3.46e+03,1.48e+04
830,1.28e+04,6.79e+03,1.02e+04,-3.69e+03,6.90e+03,-1.62e+03,1.48e+04
831,5.86e+03,1.64e+03,8.98e+03,-1.26e+03,4.36e+03,-1.73e+03,1.06e+04
832,4.67e+03,1.59e+02,2.99e+03,-4.48e+03,3.03e+03,-3.46e+03,1.18e+04
833,1.86e+03,1.46e+02,4.37e+03,-1.45e+03,3.04e+03,-3.33e+03,8.99e+03
834,1.36e+04,2.29e+03,1.05e+04,-5.12e+03,6.18e+03,-2.85e+03,1.79e+04
835,7.79e+02,-2.35e+03,4.31e+03,-2.55e+03,2.67e+03,-2.89e+03,9.96e+03
836,2.15e+02,-5.57e+02,3.67e+03,-1.10e+03,1.49e+03,-3.33e+03,7.66e+03
837,8.34e+03,3.51e+01,8.26e+03,-5.05e+03,4.40e+03,-2.85e+03,1.51e+04
838,3.26e+03,2.02e+03,9.30e+03,-1.27e+03,5.41e+03,-1.80e+03,1.22e+04
839,2.63e+03,2.43e+03,2.07e+03,-3.77e+03,6.43e+02,-3.49e+03,8.97e+03
840,1.13e+04,3.59e+03,8.95e+03,-3.39e+03,4.46e+03,-3.32e+03,1.32e+04
841,2.42e+03,1.04e+03,1.04e+03,-1.84e+03,3.03e+03,0.00e+00,6.30e+03
842,2.40e+03,1.03e+03,1.03e+03,-3.15e+03,2.69e+03,0.00e+00,7.31e+03
843,1.44e+03,1.74e+03,2.61e+03,-2.13e+03,2.46e+03,-2.21e+03,6.90e+03
844,7.87e+03,2.92e+03,4.78e+03,-3.96e+03,4.95e+03,-1.63e+03,1.21e+04
845,1.38e+03,-1.09e+03,-2.86e+02,-2.50e+03,2.86e+03,-6.88e+02,7.03e+03
846,6.25e+02,1.39e+03,2.26e+03,-1.32e+03,1.41e+03,-2.21e+03,5.28e+03
847,5.40e+03,1.86e+03,3.72e+03,-3.13e+03,3.03e+03,-1.63e+03,8.62e+03
848,2.32e+03,1.23e+03,4.83e+03,-9.68e+02,3.04e+03,-3.10e+03,8.34e+03
849,1.86e+03,3.09e+03,2.28e+03,-2.99e+03,1.24e+03,-3.18e+03,7.93e+03
850,5.73e+03,4.47e+03,5.68e+03,-2.58e+03,2.87e+03,-2.79e+03,8.33e+03
851,6.79e+02,5.23e+02,4.13e+03,-6.12e+02,1.49e+03,-3.10e+03,7.01e+03
852,1.61e+02,2.36e+03,1.55e+03,-1.55e+03,4.02e+02,-3.18e+03,6.46e+03
853,1.97e+02,-4.01e+02,4.99e+02,-1.86e+02,1.30e+02,-1.28e+03,2.39e+03
854,1.34e+03,-5.71e+02,7.88e+02,-8.67e+02,6.43e+02,-1.05e+03,3.11e+03
855,-2.10e+03,1.16e+03,2.43e+03,-4.87e+02,2.10e+02,-2.75e+03,6.31e+03
856,-3.34e+01,-1.43e+01,-1.43e+01,-1.44e+03,1.33e+03,0.00e+00,3.40e+03
857,2.40e+03,1.03e+03,1.03e+03,-3.15e+03,2.69e+03,0.00e+00,7.31e+03
858,1.33e+03,1.50e+03,2.50e+03,-1.65e+03,2.46e+03,-1.79e+03,6.09e+03
859,1.25e+03,2.81e+03,1.37e+03,-2.79e+03,1.41e+03,-1.72e+03,6.36e+03
860,3.10e+03,3.85e+03,3.55e+03,-2.58e+03,2.30e+03,-1.28e+03,6.42e+03
861,5.22e+02,1.15e+03,2.15e+03,-8.41e+02,1.41e+03,-1.79e+03,4.44e+03
862,4.72e+02,2.47e+03,1.04e+03,-1.56e+03,7.37e+02,-1.72e+03,4.58e+03
863,5.47e+01,8.83e+02,7.88e+02,-7.04e+02,5.31e+02,-1.68e+03,3.37e+03
864,1.55e+03,2.37e+03,1.97e+03,-1.50e+03,1.24e+03,-2.05e+03,4.94e+03
865,-8.13e+02,9.65e+02,7.87e+02,-8.31e+02,7.09e+02,-1.90e+03,4.15e+03
866,-4.49e+01,8.40e+02,7.46e+02,-1.92e+02,6.81e+01,-1.68e+03,3.04e+03
867,-1.49e+02,1.64e+03,1.24e+03,-5.85e+01,4.02e+02,-2.05e+03,3.97e+03
868,2.57e+02,-2.61e+02,5.59e+02,1.11e+02,1.30e+02,-1.31e+03,2.39e+03
869,2.77e+02,5.39e+01,-1.05e+02,-2.46e+02,5.44e-01,-1.41e+03,2.49e+03
870,7.04e+02,3.15e+02,4.55e+02,-2.05e+02,2.22e+02,-1.28e+03,2.31e+03
871,-3.34e+01,-1.43e+01,-1.43e+01,-1.44e+03,1.33e+03,0.00e+00,3.40e+03
872,1.59e+02,6.82e+01,6.82e+01,-1.68e+03,1.04e+03,0.00e+00,3.42e+03
873,4.89e+02,8.70e+02,5.90e+02,-1.16e+03,9.74e+02,-7.25e+02,2.93e+03
874,7.58e+02,1.66e+03,8.82e+02,-2.18e+03,1.41e+03,-9.56e+02,4.87e+03
875,-2.71e+02,-5.05e+02,-5.55e+02,-1.54e+03,1.21e+03,-2.23e+02,3.42e+03
876,1.93e+02,7.42e+02,4.62e+02,-7.10e+02,6.09e+02,-7.25e+02,2.10e+03
877,-1.76e+01,1.33e+03,5.50e+02,-9.46e+02,7.37e+02,-9.56e+02,2.90e+03
878,-8.70e+01,5.52e+02,6.47e+02,-5.47e+02,5.31e+02,-1.22e+03,2.59e+03
879,4.08e+02,1.30e+03,3.50e+02,-8.34e+02,4.77e+02,-1.21e+03,2.84e+03
880,3.02e+02,1.48e+03,8.58e+02,-9.06e+02,6.00e+02,-1.00e+03,2.76e+03
881,-1.87e+02,5.09e+02,6.04e+02,-3.54e+01,6.81e+01,-1.22e+03,2.25e+03
882,2.38e+02,1.22e+03,2.77e+02,-1.59e+02,1.08e+02,-1.21e+03,2.34e+03
883,-5.91e+01,-1.92e+02,-3.63e+02,-4.16e+01,6.43e+01,-9.48e+02,1.67e+03
884,2.29e+02,-5.78e+01,-1.53e+02,2.10e+02,5.44e-01,-9.74e+02,1.76e+03
885,4.62e+01,6.11e+02,3.21e+02,1.10e+02,-1.66e+01,-1.32e+03,2.35e+03
886,1.50e+03,6.44e+02,6.44e+02,-1.11e+03,1.08e+03,0.00e+00,2.82e+03
887,1.59e+02,6.82e+01,6.82e+01,-1.68e+03,1.04e+03,0.00e+00,3.42e+03
888,2.69e+02,3.55e+02,3.69e+02,-8.47e+02,9.74e+02,-3.04e+02,2.30e+03
889,1.80e+03,8.73e+02,7.23e+02,-1.24e+03,1.11e+03,-4.22e+02,3.13e+03
890,1.16e+03,1.15e+03,6.50e+02,-1.24e+03,8.97e+02,-2.18e+02,2.72e+03
891,-2.80e+01,2.28e+02,2.42e+02,-3.93e+02,6.09e+02,-3.04e+02,1.39e+03
892,3.06e+02,2.34e+02,8.38e+01,-4.93e+02,6.70e+02,-4.22e+02,1.63e+03
893,1.96e+02,1.83e+02,5.71e+01,-3.26e+02,6.88e+02,-4.13e+02,1.51e+03
894,5.15e+01,4.65e+02,-6.59e+00,-5.53e+02,4.77e+02,-5.05e+02,1.60e+03
895,1.52e+02,7.18e+01,1.38e+02,-3.93e+02,6.40e+02,-4.15e+02,1.49e+03
896,-8.28e+01,6.39e+01,-6.22e+01,2.15e+01,2.71e+02,-4.13e+02,8.68e+02
897,-1.18e+02,3.92e+02,-7.93e+01,1.22e+02,1.08e+02,-5.05e+02,1.04e+03
898,-3.12e+01,-1.27e+02,-3.35e+02,1.77e+01,6.43e+01,-4.97e+02,9.09e+02
899,1.29e+01,3.37e+01,-2.87e+02,6.38e+01,2.14e+02,-4.51e+02,9.25e+02
900,-3.03e+02,3.25e+01,-3.18e+02,1.31e+01,1.45e+02,-3.87e+02,7.94e+02
901,-1.86e+03,-7.97e+02,-7.97e+02,-1.52e+03,-1.08e+03,0.00e+00,3.40e+03
902,-2.95e+02,-1.27e+02,-1.27e+02,-2.24e+03,-9.16e+02,0.00e+00,4.20e+03
903,-3.03e+02,-5.92e+02,-1.72e+02,-1.31e+03,-1.01e+03,-3.33e+02,2.94e+03
904,-2.13e+03,-1.20e+03,-5.94e+02,-1.63e+03,-9.60e+02,-4.78e+02,3.63e+03
905,-1.43e+03,-1.42e+03,-6.77e+02,-1.70e+03,-8.11e+02,-2.35e+02,3.36e+03
906,1.19e+02,-4.11e+02,8.65e+00,-5.15e+02,-5.84e+02,-3.33e+02,1.54e+03
907,-2.49e+02,-3.93e+02,2.11e+02,-5.95e+02,-5.54e+02,-4.78e+02,1.72e+03
908,-1.42e+02,-2.90e+02,3.41e+02,-4.34e+02,-5.97e+02,-4.20e+02,1.58e+03
909,-2.49e+01,-7.29e+02,3.37e+02,-7.06e+02,-4.16e+02,-5.66e+02,1.96e+03
910,-1.34e+01,-2.43e+02,2.27e+02,-5.01e+02,-5.68e+02,-4.68e+02,1.59e+03
911,1.63e+02,-1.60e+02,4.72e+02,4.23e+01,-1.86e+02,-4.20e+02,9.68e+02
912,2.22e+02,-6.23e+02,4.43e+02,2.66e+02,-9.43e+01,-5.66e+02,1.47e+03
913,6.40e+01,1.82e+02,6.63e+02,1.04e+02,4.31e+01,-4.43e+02,9.64e+02
914,5.16e+01,8.83e+00,6.80e+02,1.22e+02,-1.70e+02,-4.04e+02,1.02e+03
915,3.78e+02,1.13e+01,7.50e+02,7.85e+01,-8.59e+01,-3.48e+02,9.02e+02
916,-2.75e+02,-1.18e+02,-1.18e+02,-2.28e+03,-1.55e+03,0.00e+00,4.78e+03
917,-2.95e+02,-1.27e+02,-1.27e+02,-2.24e+03,-9.16e+02,0.00e+00,4.20e+03
918,-7.38e+02,-1.61e+03,-6.07e+02,-1.77e+03,-1.01e+03,-9.26e+02,3.98e+03
919,-1.59e+03,-3.01e+03,-8.11e+02,-3.37e+03,-1.37e+03,-1.16e+03,6.89e+03
920,9.04e+01,2.23e+02,7.84e+02,-2.26e+03,-1.24e+03,-2.50e+02,4.53e+03
921,-3.16e+02,-1.43e+03,-4.26e+02,-9.76e+02,-5.84e+02,-9.26e+02,2.75e+03
922,-2.41e+02,-2.43e+03,-2.33e+02,-1.11e+03,-7.13e+02,-1.16e+03,3.75e+03
923,3.75e+01,-1.14e+03,-2.39e+02,-8.50e+02,-4.58e+02,-1.38e+03,3.10e+03
924,-6.18e+02,-2.11e+03,-2.56e+02,-1.16e+03,-4.16e+02,-1.26e+03,3.50e+03
925,-4.67e+02,-2.16e+03,-5.65e+02,-1.24e+03,-4.89e+02,-1.13e+03,3.45e+03
926,3.69e+02,-9.94e+02,-9.67e+01,1.64e+02,6.85e+01,-1.38e+03,2.69e+03
927,-3.71e+02,-2.01e+03,-1.50e+02,-1.87e+02,-9.43e+01,-1.26e+03,2.82e+03
928,8.61e+01,2.34e+02,6.85e+02,-4.96e+01,4.31e+01,-8.97e+02,1.65e+03
929,-3.85e+02,4.22e+02,5.59e+02,5.31e+02,-1.61e+02,-7.72e+02,1.87e+03
930,7.31e+01,-1.03e+03,-7.97e+01,2.34e+02,2.89e+01,-1.44e+03,2.73e+03
931,-2.75e+02,-1.18e+02,-1.18e+02,-2.28e+03,-1.55e+03,0.00e+00,4.78e+03
932,-6.70e+03,-2.87e+03,-2.87e+03,-5.32e+03,-2.67e+03,0.00e+00,1.10e+04
933,-2.87e+03,-2.81e+03,-2.51e+03,-3.18e+03,-3.49e+03,-2.70e+03,9.42e+03
934,-2.79e+03,-5.81e+03,-2.01e+03,-4.75e+03,-1.37e+03,-2.00e+03,9.88e+03
935,-6.09e+03,-6.63e+03,-5.03e+03,-4.56e+03,-2.88e+03,-1.73e+03,9.92e+03
936,-1.19e+03,-2.09e+03,-1.79e+03,-1.54e+03,-2.35e+03,-2.70e+03,6.79e+03
937,-1.44e+03,-5.23e+03,-1.43e+03,-2.49e+03,-7.13e+02,-2.00e+03,6.82e+03
938,-4.31e+02,-2.23e+03,-7.07e+02,-1.37e+03,-4.58e+02,-2.23e+03,4.90e+03
939,-3.51e+03,-5.74e+03,-1.75e+03,-2.98e+03,-1.90e+03,-2.75e+03,8.49e+03
940,1.24e+03,-2.57e+03,5.43e+01,-1.37e+03,-1.12e+03,-2.50e+03,6.29e+03
941,-9.88e+01,-2.09e+03,-5.65e+02,-3.58e+02,6.85e+01,-2.23e+03,4.31e+03
942,-8.43e+01,-4.27e+03,-2.82e+02,7.75e+02,-1.09e+03,-2.75e+03,6.69e+03
943,-3.16e+02,1.48e+02,1.69e+02,2.46e+02,-1.77e+02,-1.05e+03,1.95e+03
944,-4.35e+02,3.05e+02,5.09e+02,-6.48e+02,-1.61e+02,-1.21e+03,2.55e+03
945,-1.42e+03,-4.30e+02,4.14e+02,-2.23e+02,-2.02e+02,-1.22e+03,2.69e+03
946,-7.85e+03,-3.36e+03,-3.36e+03,-3.65e+03,-4.38e+03,0.00e+00,1.08e+04
947,-6.70e+03,-2.87e+03,-2.87e+03,-5.32e+03,-2.67e+03,0.00e+00,1.10e+04
948,-3.21e+03,-3.59e+03,-2.85e+03,-4.29e+03,-3.49e+03,-3.80e+03,1.16e+04
949,-1.77e+04,-6.21e+03,-5.87e+03,-7.83e+03,-6.41e+03,-1.99e+03,2.13e+04
950,-5.17e+03,3.79e+02,4.12e+02,-4.62e+03,-3.39e+03,-1.41e+03,1.16e+04
951,-1.53e+03,-2.87e+03,-2.13e+03,-2.66e+03,-2.35e+03,-3.80e+03,9.08e+03
952,-1.70e+04,-5.94e+03,-5.59e+03,-7.81e+03,-4.66e+03,-1.99e+03,1.97e+04
953,-5.52e+03,-2.62e+03,-4.29e+03,-2.78e+03,-6.45e+03,-6.21e+03,1.64e+04
954,-5.58e+03,-1.06e+04,-3.82e+03,-7.78e+03,-1.90e+03,-4.21e+03,1.68e+04
955,-1.52e+04,-1.17e+04,-8.74e+03,-6.80e+03,-5.19e+03,-4.80e+03,1.79e+04
956,-3.43e+02,-4.03e+02,-2.07e+03,-1.99e+03,-4.88e+03,-6.21e+03,1.42e+04
957,-2.16e+03,-9.11e+03,-2.36e+03,-4.03e+03,-1.09e+03,-4.21e+03,1.24e+04
958,-9.11e+02,-1.24e+03,-4.27e+02,-1.20e+03,-1.77e+02,-1.57e+03,3.51e+03
959,-2.00e+03,-1.11e+03,-2.06e+02,-1.59e+03,-4.33e+03,-1.22e+03,8.41e+03
960,6.04e+03,-4.49e+03,-4.88e+02,-1.29e+03,-2.18e+03,-4.06e+03,1.24e+04
961,-7.85e+03,-3.36e+03,-3.36e+03,-3.65e+03,-4.38e+03,0.00e+00,1.08e+04
962,-3.71e+04,-1.59e+04,-1.59e+04,-3.72e+03,-7.61e+03,0.00e+00,2.58e+04
963,-1.70e+04,-3.12e+03,-1.06e+04,-3.53e+03,-1.02e+04,-2.97e+03,2.28e+04
964,-1.66e+04,-3.82e+03,-4.84e+03,-9.26e+03,-6.41e+03,-4.25e+03,2.42e+04
965,-2.45e+04,-1.17e+04,-1.44e+04,-7.17e+03,-9.47e+03,-1.37e+03,2.38e+04
966,-1.73e+04,-3.26e+03,-1.07e+04,-3.76e+03,-8.86e+03,-2.97e+03,2.13e+04
967,-1.60e+04,-3.55e+03,-4.57e+03,-9.24e+03,-4.66e+03,-4.25e+03,2.28e+04
968,-4.34e+03,1.30e+02,-3.11e+03,-5.57e+03,-6.45e+03,-8.88e+03,2.17e+04
969,-4.52e+04,-8.42e+03,-1.48e+04,-1.39e+04,-1.42e+04,-4.89e+03,4.92e+04
970,-8.82e+03,4.75e+03,-5.48e+02,-5.84e+03,-5.49e+03,-5.91e+03,2.09e+04
971,8.35e+02,2.35e+03,-8.89e+02,-4.78e+03,-4.88e+03,-8.88e+03,1.96e+04
972,-5.62e+04,-1.31e+04,-1.95e+04,-1.88e+04,-1.78e+04,-4.89e+03,6.09e+04
973,-1.22e+04,-1.05e+04,-2.92e+04,-5.20e+03,-2.17e+04,-7.77e+03,4.46e+04
974,-1.21e+04,-2.47e+04,-1.03e+04,-2.04e+04,-4.33e+03,-9.01e+03,4.17e+04
975,-5.04e+04,-2.57e+04,-2.97e+04,-1.76e+04,-1.81e+04,-1.24e+04,5.39e+04
976,-1.63e+04,-6.97e+03,-6.97e+03,1.74e+03,-5.73e+03,0.00e+00,1.39e+04
977,-3.71e+04,-1.59e+04,-1.59e+04,-3.72e+03,-7.61e+03,0.00e+00,2.58e+04
978,-1.61e+04,-1.22e+03,-9.74e+03,-1.03e+03,-1.02e+04,-2.21e+03,2.24e+04
979,-3.15e+04,-2.17e+01,-7.44e+03,1.11e+03,-1.03e+04,2.28e+03,3.39e+04
980,-2.44e+04,-4.64e+03,-1.08e+04,1.49e+03,-9.14e+03,-1.49e+03,2.39e+04
981,-1.65e+04,-1.36e+03,-9.89e+03,-1.26e+03,-8.86e+03,-2.21e+03,2.07e+04
982,-4.07e+04,-3.96e+03,-1.14e+04,-6.74e+02,-9.95e+03,2.28e+03,3.80e+04
983,-1.26e+04,-8.58e+00,-1.04e+04,5.60e+01,-1.45e+04,3.86e+03,2.85e+04
984,-4.20e+04,-1.01e+03,-1.16e+04,-1.57e+03,-1.42e+04,-2.34e+03,4.46e+04
985,-2.96e+04,-1.54e+03,-1.09e+04,-3.48e+03,-1.16e+04,4.89e+02,3.24e+04
986,-7.14e+03,2.32e+03,-8.04e+03,-3.10e+02,-1.22e+04,3.86e+03,2.44e+04
987,-5.30e+04,-5.71e+03,-1.63e+04,-6.40e+03,-1.78e+04,-2.34e+03,5.42e+04
988,-1.20e+04,-9.93e+03,-2.90e+04,1.30e+02,-2.17e+04,-8.45e+03,4.42e+04
989,-7.98e+04,-1.75e+04,-4.48e+04,-8.91e+03,-3.43e+04,8.85e+02,8.17e+04
990,-2.87e+04,2.18e+03,-1.80e+04,1.32e+03,-1.98e+04,1.61e+03,4.39e+04
991,-1.63e+04,-6.97e+03,-6.97e+03,1.74e+03,-5.73e+03,0.00e+00,1.39e+04
992,-1.29e+04,-5.53e+03,-5.53e+03,7.22e+03,-2.27e+03,0.00e+00,1.50e+04
993,-5.53e+03,-7.16e+01,-2.84e+03,5.25e+03,-3.31e+03,6.95e+03,1.68e+04
994,-3.13e+04,4.79e+02,-7.22e+03,7.98e+03,-1.03e+04,2.04e+03,3.67e+04
995,-9.00e+03,3.90e+03,2.22e+03,4.88e+03,-3.60e+03,3.72e+03,1.73e+04
996,-5.47e+03,-4.37e+01,-2.81e+03,2.77e+03,-2.81e+03,6.95e+03,1.46e+04
997,-4.05e+04,-3.46e+03,-1.12e+04,6.19e+03,-9.95e+03,2.04e+03,3.96e+04
998,-1.29e+04,-8.65e+02,-1.07e+04,2.57e+03,-1.45e+04,3.65e+03,2.86e+04
999,-1.48e+04,-7.43e+02,-4.31e+03,1.03e+04,-4.89e+03,5.85e+03,2.55e+04
1000,-3.29e+04,-6.55e+03,-1.49e+04,7.32e+03,-1.07e+04,5.62e+03,3.38e+04
1001,-7.50e+03,1.46e+03,-8.41e+03,2.21e+03,-1.22e+04,3.65e+03,2.44e+04
1002,-1.71e+04,-1.71e+03,-5.27e+03,7.66e+03,-5.54e+03,5.85e+03,2.38e+04
1003,-4.57e+03,-4.08e+03,-9.17e+03,8.93e+02,-6.95e+03,2.20e+03,1.36e+04
1004,-9.04e+04,-4.23e+04,-5.54e+04,2.41e+04,-3.43e+04,5.14e+03,8.48e+04
1005,3.56e+03,5.53e+02,-5.12e+03,3.12e+03,-8.82e+03,1.74e+03,1.82e+04
1006,5.96e+03,2.55e+03,2.55e+03,3.97e+03,2.05e+03,0.00e+00,8.46e+03
1007,-1.29e+04,-5.53e+03,-5.53e+03,7.22e+03,-2.27e+03,0.00e+00,1.50e+04
1008,-5.55e+03,-1.28e+02,-2.86e+03,5.78e+03,-3.31e+03,6.78e+03,1.71e+04
1009,1.11e+04,-1.04e+03,2.33e+03,1.14e+04,3.73e+03,4.10e+03,2.44e+04
1010,-8.20e+03,-8.92e+03,-9.81e+03,7.84e+03,-2.35e+03,3.15e+03,1.53e+04
1011,-5.49e+03,-1.00e+02,-2.83e+03,3.31e+03,-2.81e+03,6.78e+03,1.47e+04
1012,1.41e+04,2.64e+02,3.63e+03,8.21e+03,3.52e+03,4.10e+03,2.11e+04
1013,4.92e+03,7.57e+02,4.01e+03,3.91e+03,5.16e+03,7.83e+03,1.80e+04
1014,-1.42e+04,6.04e+02,-3.73e+03,1.15e+04,-4.89e+03,5.54e+03,2.71e+04
1015,1.44e+04,6.96e+03,8.46e+03,6.85e+03,3.28e+03,7.14e+03,1.93e+04
1016,2.69e+03,-1.98e+02,3.06e+03,2.63e+03,4.21e+03,7.83e+03,1.63e+04
1017,-1.65e+04,-3.59e+02,-4.70e+03,8.93e+03,-5.54e+03,5.54e+03,2.51e+04
1018,-3.58e+03,-1.76e+03,-8.17e+03,1.70e+03,-6.95e+03,1.27e+03,1.38e+04
1019,3.25e+04,1.88e+04,2.07e+04,1.89e+04,1.16e+04,6.27e+03,4.19e+04
1020,-2.49e+04,-4.45e+03,-7.86e+03,6.64e+03,-3.81e+03,5.55e+03,2.51e+04
1021,5.96e+03,2.55e+03,2.55e+03,3.97e+03,2.05e+03,0.00e+00,8.46e+03
1022,3.23e+04,1.38e+04,1.38e+04,3.07e+03,5.96e+03,0.00e+00,2.18e+04
1023,1.40e+04,2.59e+02,7.52e+03,3.44e+03,8.40e+03,3.65e+03,2.07e+04
1024,1.17e+04,4.52e+02,2.96e+03,9.16e+03,3.73e+03,4.28e+03,2.13e+04
1025,2.10e+04,9.32e+03,1.33e+04,6.65e+03,7.14e+03,1.25e+03,1.99e+04
1026,1.42e+04,3.38e+02,7.60e+03,2.13e+03,7.20e+03,3.65e+03,1.88e+04
1027,1.47e+04,1.75e+03,4.26e+03,5.99e+03,3.52e+03,4.28e+03,1.85e+04
1028,4.19e+03,-9.38e+02,3.29e+03,3.41e+03,5.16e+03,8.16e+03,1.84e+04
1029,3.76e+04,-9.78e+02,1.01e+04,7.78e+03,1.27e+04,2.28e+03,4.31e+04
1030,8.11e+03,-4.60e+03,4.39e+02,3.37e+03,4.63e+03,5.50e+03,1.77e+04
1031,1.97e+03,-1.89e+03,2.33e+03,2.12e+03,4.21e+03,8.16e+03,1.68e+04
1032,4.53e+04,2.35e+03,1.34e+04,5.37e+03,1.49e+04,2.28e+03,4.75e+04
1033,1.01e+04,6.45e+03,2.29e+04,1.83e+03,1.88e+04,-2.52e+03,3.62e+04
1034,2.39e+04,-1.26e+03,1.21e+04,1.03e+04,1.16e+04,5.63e+03,3.59e+04
1035,3.77e+04,4.18e+03,1.80e+04,7.17e+03,1.50e+04,5.77e+03,4.22e+04
1036,1.82e+04,7.82e+03,7.82e+03,-1.76e+03,7.00e+03,0.00e+00,1.63e+04
1037,3.23e+04,1.38e+04,1.38e+04,3.07e+03,5.96e+03,0.00e+00,2.18e+04
1038,1.40e+04,2.46e+02,7.51e+03,1.70e+03,8.40e+03,3.74e+03,2.01e+04
1039,3.56e+04,1.06e+03,8.59e+03,2.44e+02,1.20e+04,-7.32e+02,3.78e+04
1040,2.16e+04,3.13e+03,6.30e+03,-1.02e+03,8.15e+03,2.44e+03,2.26e+04
1041,1.42e+04,3.25e+02,7.59e+03,3.92e+02,7.20e+03,3.74e+03,1.85e+04
1042,4.66e+04,5.77e+03,1.33e+04,-1.84e+03,1.21e+04,-7.32e+02,4.32e+04
1043,1.41e+04,1.07e+03,1.33e+04,-6.98e+02,1.69e+04,-3.99e+03,3.26e+04
1044,3.79e+04,-1.47e+02,1.05e+04,1.23e+03,1.27e+04,2.60e+03,4.08e+04
1045,3.39e+04,2.15e+02,1.35e+04,2.55e+03,1.30e+04,7.59e+02,3.73e+04
1046,8.80e+03,-1.18e+03,1.10e+04,-6.36e+02,1.51e+04,-3.99e+03,2.94e+04
1047,4.57e+04,3.18e+03,1.38e+04,-1.18e+03,1.49e+04,2.60e+03,4.64e+04
1048,1.10e+04,8.58e+03,2.38e+04,-1.61e+03,1.88e+04,-9.32e+01,3.56e+04
1049,9.39e+04,3.43e+04,5.61e+04,9.05e+03,3.88e+04,-3.60e+03,8.67e+04
1050,2.33e+04,7.33e+03,1.81e+04,-4.74e+03,1.83e+04,-4.82e+03,3.67e+04
1051,1.82e+04,7.82e+03,7.82e+03,-1.76e+03,7.00e+03,0.00e+00,1.63e+04
1052,1.93e+04,8.29e+03,8.29e+03,-6.89e+03,4.62e+03,0.00e+00,1.81e+04
1053,7.35e+03,1.42e+03,4.52e+03,-5.31e+03,6.57e+03,-6.16e+03,1.88e+04
1054,3.72e+04,4.85e+03,1.02e+04,-8.44e+03,1.20e+04,-1.72e+03,3.95e+04
1055,1.41e+04,-9.14e+02,1.38e+03,-4.20e+03,5.94e+03,-3.13e+03,1.96e+04
1056,4.87e+03,3.62e+02,3.46e+03,-4.48e+03,4.65e+03,-6.16e+03,1.60e+04
1057,4.82e+04,9.56e+03,1.49e+04,-1.05e+04,1.21e+04,-1.72e+03,4.58e+04
1058,1.53e+04,4.00e+03,1.45e+04,-5.12e+03,1.69e+04,-5.86e+03,3.40e+04
1059,1.46e+04,6.25e+03,5.64e+03,-1.57e+04,5.83e+03,-7.49e+03,3.29e+04
1060,3.78e+04,1.45e+04,1.99e+04,-1.18e+04,1.33e+04,-6.79e+03,3.92e+04
1061,1.01e+04,1.75e+03,1.23e+04,-5.05e+03,1.51e+04,-5.86e+03,3.10e+04
1062,7.21e+03,3.08e+03,2.47e+03,-1.46e+04,4.67e+03,-7.49e+03,2.99e+04
1063,4.12e+03,3.93e+03,5.57e+03,-3.77e+03,4.30e+03,-6.04e+03,1.45e+04
1064,1.06e+05,6.34e+04,6.86e+04,-3.92e+04,3.88e+04,-1.54e+04,1.07e+05
1065,-1.32e+04,-5.08e+03,-8.77e+02,-8.70e+03,7.69e+03,-5.88e+03,2.50e+04
1066,2.40e+03,1.03e+03,1.03e+03,-3.15e+03,2.69e+03,0.00e+00,7.31e+03
1067,1.93e+04,8.29e+03,8.29e+03,-6.89e+03,4.62e+03,0.00e+00,1.81e+04
1068,8.08e+03,3.13e+03,5.25e+03,-3.96e+03,6.57e+03,-4.33e+03,1.59e+04
1069,7.53e+03,8.23e+03,3.81e+03,-8.01e+03,2.95e+03,-3.22e+03,1.63e+04
1070,1.44e+04,1.13e+04,9.81e+03,-7.04e+03,5.67e+03,-2.36e+03,1.67e+04
1071,5.60e+03,2.07e+03,4.19e+03,-3.13e+03,4.65e+03,-4.33e+03,1.27e+04
1072,5.20e+03,7.24e+03,2.81e+03,-5.13e+03,1.91e+03,-3.22e+03,1.16e+04
1073,1.80e+03,3.04e+03,2.15e+03,-2.99e+03,1.79e+03,-4.19e+03,9.50e+03
1074,1.54e+04,8.01e+03,6.39e+03,-6.42e+03,5.83e+03,-3.54e+03,1.82e+04
1075,6.28e+02,2.56e+03,7.96e+02,-3.06e+03,2.39e+03,-3.97e+03,9.79e+03
1076,1.06e+02,2.31e+03,1.42e+03,-1.55e+03,9.52e+02,-4.19e+03,8.14e+03
1077,7.97e+03,4.85e+03,3.23e+03,-5.34e+03,4.67e+03,-3.54e+03,1.44e+04
1078,2.84e+03,9.26e+02,4.28e+03,-8.67e+02,4.30e+03,-3.61e+03,1.03e+04
1079,3.36e+03,6.91e+03,2.34e+03,-5.22e+03,8.04e+02,-2.64e+03,1.10e+04
1080,1.20e+04,6.87e+03,5.55e+03,-4.41e+03,3.56e+03,-3.78e+03,1.32e+04
1081,2.40e+03,1.03e+03,1.03e+03,-3.15e+03,2.69e+03,0.00e+00,7.31e+03
1082,1.36e+03,5.83e+02,5.83e+02,-3.40e+03,1.49e+03,0.00e+00,6.48e+03
1083,1.27e+03,2.83e+03,1.42e+03,-2.79e+03,1.73e+03,-2.06e+03,6.87e+03
1084,6.32e+03,5.41e+03,2.60e+03,-5.59e+03,2.95e+03,-1.90e+03,1.19e+04
1085,9.73e+02,-3.08e+02,-1.10e+03,-3.40e+03,1.97e+03,-6.03e+02,7.12e+03
1086,4.92e+02,2.49e+03,1.09e+03,-1.56e+03,1.06e+03,-2.06e+03,5.15e+03
1087,4.00e+03,4.42e+03,1.60e+03,-2.71e+03,1.91e+03,-1.90e+03,7.12e+03
1088,1.49e+03,2.32e+03,1.84e+03,-1.50e+03,1.79e+03,-3.05e+03,6.70e+03
1089,1.60e+03,5.07e+03,1.27e+03,-2.83e+03,7.22e+02,-2.49e+03,7.58e+03
1090,3.80e+03,5.24e+03,2.89e+03,-2.74e+03,1.67e+03,-2.52e+03,7.36e+03
1091,-2.04e+02,1.59e+03,1.11e+03,-5.85e+01,9.52e+02,-3.05e+03,5.77e+03
1092,8.19e+02,4.73e+03,9.33e+02,-9.60e+02,2.15e+02,-2.49e+03,6.03e+03
1093,-9.36e-01,-2.24e+02,-7.54e+02,-2.46e+02,-1.82e+02,-1.34e+03,2.47e+03
1094,5.56e+02,3.62e+02,-4.63e+02,3.56e+02,8.04e+02,-1.45e+03,3.08e+03
1095,-1.47e+03,2.44e+03,4.36e+02,1.78e+02,2.76e+02,-2.71e+03,5.82e+03
1096,1.59e+02,6.82e+01,6.82e+01,-1.68e+03,1.04e+03,0.00e+00,3.42e+03
1097,1.36e+03,5.83e+02,5.83e+02,-3.40e+03,1.49e+03,0.00e+00,6.48e+03
1098,7.78e+02,1.68e+03,9.28e+02,-2.18e+03,1.73e+03,-1.29e+03,5.38e+03
1099,1.32e+03,2.87e+03,8.53e+02,-2.64e+03,8.76e+02,-1.12e+03,5.50e+03
1100,2.12e+03,3.12e+03,2.07e+03,-2.68e+03,1.41e+03,-9.08e+02,5.57e+03
1101,2.13e+00,1.35e+03,5.96e+02,-9.46e+02,1.06e+03,-1.29e+03,3.52e+03
1102,6.96e+02,2.60e+03,5.86e+02,-1.35e+03,4.75e+02,-1.12e+03,3.71e+03
1103,2.93e+02,1.18e+03,8.22e+01,-8.34e+02,3.99e+02,-1.19e+03,2.80e+03
1104,4.63e+02,2.40e+03,1.29e+02,-1.35e+03,7.22e+02,-1.50e+03,4.27e+03
1105,-5.24e+02,1.37e+03,-1.58e+02,-8.57e+02,6.80e+02,-1.37e+03,3.50e+03
1106,1.24e+02,1.11e+03,9.51e+00,-1.59e+02,3.06e+01,-1.19e+03,2.33e+03
1107,-3.23e+02,2.07e+03,-2.08e+02,5.20e+02,2.15e+02,-1.50e+03,3.62e+03
1108,-4.88e+01,-3.36e+02,-8.02e+02,2.10e+02,-1.82e+02,-9.06e+02,1.77e+03
1109,1.25e+02,-1.45e+02,-5.84e+02,-1.18e+02,1.08e+02,-8.36e+02,1.60e+03
1110,-2.92e+01,1.84e+02,-7.84e+02,2.09e+01,-6.99e+01,-7.65e+02,1.60e+03
1111,1.59e+02,6.82e+01,6.82e+01,-1.68e+03,1.04e+03,0.00e+00,3.42e+03
1112,2.29e+03,9.81e+02,9.81e+02,-1.98e+03,9.40e+02,0.00e+00,4.01e+03
1113,1.72e+03,7.92e+02,5.34e+02,-1.24e+03,1.16e+03,-2.91e+02,3.18e+03
1114,5.35e+02,1.05e+03,7.10e+01,-1.90e+03,8.76e+02,-5.07e+02,3.82e+03
1115,9.77e+02,2.70e+01,1.97e+02,-1.57e+03,1.24e+03,-1.65e+02,3.59e+03
1116,2.25e+02,1.53e+02,-1.06e+02,-4.93e+02,7.28e+02,-2.91e+02,1.63e+03
1117,-8.62e+01,7.79e+02,-1.95e+02,-6.14e+02,4.75e+02,-5.07e+02,1.85e+03
1118,-6.32e+01,3.50e+02,-2.74e+02,-5.53e+02,3.99e+02,-4.83e+02,1.55e+03
1119,2.74e+02,6.35e+02,-3.60e+02,-5.63e+02,5.30e+02,-5.08e+02,1.82e+03
1120,-9.44e+01,5.98e+02,-3.29e+02,-6.51e+02,4.83e+02,-4.24e+02,1.79e+03
1121,-2.33e+02,2.78e+02,-3.47e+02,1.22e+02,3.06e+01,-4.83e+02,1.04e+03
1122,-6.32e+01,4.91e+02,-5.05e+02,7.76e+01,1.77e+02,-5.08e+02,1.28e+03
1123,-1.85e+02,-1.64e+02,-7.49e+02,6.38e+01,1.34e+02,-4.29e+02,9.73e+02
1124,1.52e+02,-8.09e+01,-5.57e+02,2.35e+02,1.08e+02,-4.25e+02,1.07e+03
1125,3.93e+01,2.37e+02,-4.14e+02,1.73e+02,6.52e+01,-5.75e+02,1.20e+03
1126,-2.95e+02,-1.27e+02,-1.27e+02,-2.24e+03,-9.16e+02,0.00e+00,4.20e+03
1127,-2.54e+03,-1.09e+03,-1.09e+03,-2.30e+03,-6.36e+02,0.00e+00,4.39e+03
1128,-2.04e+03,-1.11e+03,-3.87e+02,-1.63e+03,-9.89e+02,-2.16e+02,3.62e+03
1129,-5.94e+02,-1.31e+03,1.59e+02,-2.32e+03,-5.87e+02,-4.58e+02,4.42e+03
1130,-1.21e+03,-3.45e+02,-1.62e+02,-2.01e+03,-1.04e+03,-1.42e+02,4.04e+03
1131,-1.61e+02,-3.05e+02,4.18e+02,-5.95e+02,-5.83e+02,-2.16e+02,1.63e+03
1132,1.66e+02,-9.89e+02,4.84e+02,-6.68e+02,-3.02e+02,-4.58e+02,2.01e+03
1133,1.07e+02,-5.96e+02,6.46e+02,-7.06e+02,-2.58e+02,-3.50e+02,1.80e+03
1134,-1.91e+02,-7.18e+02,7.59e+02,-6.37e+02,-3.67e+02,-4.16e+02,1.96e+03
1135,2.06e+02,-6.80e+02,7.13e+02,-7.35e+02,-3.20e+02,-3.22e+02,1.93e+03
1136,3.55e+02,-4.90e+02,7.52e+02,2.66e+02,6.29e+01,-3.50e+02,1.34e+03
1137,1.54e+02,-5.71e+02,9.06e+02,1.21e+02,-1.28e+02,-4.16e+02,1.50e+03
1138,2.52e+02,2.09e+02,1.15e+03,1.22e+02,-5.10e+01,-3.28e+02,1.10e+03
1139,-1.70e+02,1.94e+02,8.90e+02,3.45e+02,-1.43e+02,-3.04e+02,1.25e+03
1140,8.83e+01,-2.47e+02,8.32e+02,2.45e+02,-1.33e+01,-4.98e+02,1.36e+03
1141,-2.95e+02,-1.27e+02,-1.27e+02,-2.24e+03,-9.16e+02,0.00e+00,4.20e+03
1142,-1.91e+03,-8.19e+02,-8.19e+02,-4.22e+03,-1.01e+03,0.00e+00,7.59e+03
1143,-1.57e+03,-2.98e+03,-7.55e+02,-3.37e+03,-1.60e+03,-1.08e+03,7.01e+03
1144,-1.62e+03,-3.71e+03,-8.67e+02,-3.23e+03,-5.87e+02,-8.64e+02,6.40e+03
1145,-2.40e+03,-3.41e+03,-1.84e+03,-3.42e+03,-1.16e+03,-8.61e+02,6.58e+03
1146,-2.17e+02,-2.41e+03,-1.77e+02,-1.11e+03,-9.50e+02,-1.08e+03,3.84e+03
1147,-8.60e+02,-3.38e+03,-5.42e+02,-1.57e+03,-3.02e+02,-8.64e+02,4.14e+03
1148,-4.86e+02,-1.98e+03,5.30e+01,-1.16e+03,-2.58e+02,-1.04e+03,3.29e+03
1149,-6.47e+02,-3.09e+03,3.87e+02,-1.64e+03,-6.60e+02,-1.22e+03,4.84e+03
1150,4.14e+02,-2.18e+03,5.14e+02,-1.14e+03,-6.36e+02,-1.18e+03,4.04e+03
1151,-2.38e+02,-1.87e+03,1.59e+02,-1.87e+02,6.29e+01,-1.04e+03,2.62e+03
1152,4.68e+02,-2.62e+03,8.65e+02,8.49e+02,-3.03e+02,-1.22e+03,4.22e+03
1153,-6.31e+01,7.44e+02,1.31e+03,5.31e+02,4.19e+02,-7.95e+02,2.17e+03
1154,-9.16e+01,3.78e+02,9.69e+02,-1.19e+02,-1.43e+02,-6.11e+02,1.44e+03
1155,1.07e+02,-3.68e+02,1.22e+03,1.77e+02,1.60e+02,-4.32e+02,1.65e+03
1156,-6.70e+03,-2.87e+03,-2.87e+03,-5.32e+03,-2.67e+03,0.00e+00,1.10e+04
1157,-1.91e+03,-8.19e+02,-8.19e+02,-4.22e+03,-1.01e+03,0.00e+00,7.59e+03
1158,-2.77e+03,-5.79e+03,-1.96e+03,-4.75e+03,-1.60e+03,-1.92e+03,9.94e+03
1159,-8.52e+03,-7.12e+03,-2.37e+03,-7.36e+03,-1.83e+03,-1.06e+03,1.44e+04
1160,-3.95e+03,-2.41e+03,-1.04e+02,-5.34e+03,-1.27e+03,-2.36e+02,1.01e+04
1161,-1.42e+03,-5.21e+03,-1.38e+03,-2.49e+03,-9.50e+02,-1.92e+03,6.84e+03
1162,-5.35e+03,-5.76e+03,-1.01e+03,-3.45e+03,-9.68e+02,-1.06e+03,7.91e+03
1163,-3.30e+03,-5.53e+03,-1.26e+03,-2.98e+03,-1.20e+03,-2.41e+03,7.87e+03
1164,-2.21e+03,-6.74e+03,-1.18e+03,-3.70e+03,-6.60e+02,-1.85e+03,8.88e+03
1165,-3.92e+03,-7.00e+03,-1.93e+03,-3.47e+03,-1.19e+03,-1.97e+03,8.46e+03
1166,1.27e+02,-4.06e+03,2.10e+02,7.75e+02,-3.91e+02,-2.41e+03,6.13e+03
1167,-1.10e+03,-6.27e+03,-6.99e+02,-1.20e+03,-3.03e+02,-1.85e+03,6.62e+03
1168,-1.13e+02,6.27e+02,1.26e+03,-6.48e+02,4.19e+02,-1.24e+03,2.79e+03
1169,-7.84e+02,-1.33e+01,1.44e+03,6.36e+02,-1.06e+03,-1.21e+03,3.57e+03
1170,1.18e+03,-2.74e+03,5.98e+02,1.93e+02,-3.66e+02,-2.62e+03,5.88e+03
1171,-6.70e+03,-2.87e+03,-2.87e+03,-5.32e+03,-2.67e+03,0.00e+00,1.10e+04
1172,-2.71e+04,-1.16e+04,-1.16e+04,-9.09e+03,-3.13e+03,0.00e+00,2.28e+04
1173,-1.76e+04,-6.14e+03,-5.71e+03,-7.83e+03,-5.75e+03,-4.40e+03,2.18e+04
1174,-1.02e+04,-1.10e+04,-4.03e+03,-1.06e+04,-1.83e+03,-1.84e+03,2.01e+04
1175,-1.96e+04,-1.30e+04,-1.03e+04,-9.64e+03,-5.34e+03,-1.76e+03,2.10e+04
1176,-1.70e+04,-5.87e+03,-5.44e+03,-7.81e+03,-3.99e+03,-4.40e+03,2.04e+04
1177,-7.00e+03,-9.61e+03,-2.67e+03,-6.73e+03,-9.68e+02,-1.84e+03,1.36e+04
1178,-5.37e+03,-1.04e+04,-3.33e+03,-7.78e+03,-1.20e+03,-3.87e+03,1.64e+04
1179,-2.09e+04,-1.06e+04,-5.10e+03,-9.05e+03,-3.48e+03,-8.20e+02,2.19e+04
1180,-9.28e+03,-9.49e+03,-2.38e+03,-7.17e+03,-6.30e+02,-2.47e+03,1.49e+04
1181,-1.95e+03,-8.90e+03,-1.86e+03,-4.03e+03,-3.91e+02,-3.87e+03,1.20e+04
1182,-1.05e+04,-6.15e+03,-6.53e+02,-6.78e+03,-2.59e+03,-8.20e+02,1.53e+04
1183,-2.35e+03,-1.47e+03,-1.03e+03,-1.59e+03,-2.85e+03,-4.04e+03,9.07e+03
1184,-4.56e+03,-8.82e+03,-2.34e+03,-7.29e+03,-1.06e+03,-2.22e+03,1.45e+04
1185,-1.10e+04,-1.06e+04,-3.90e+03,-5.83e+03,-2.37e+03,-2.80e+03,1.38e+04
1186,-3.71e+04,-1.59e+04,-1.59e+04,-3.72e+03,-7.61e+03,0.00e+00,2.58e+04
1187,-2.71e+04,-1.16e+04,-1.16e+04,-9.09e+03,-3.13e+03,0.00e+00,2.28e+04
1188,-1.66e+04,-3.76e+03,-4.69e+03,-9.26e+03,-5.75e+03,-6.66e+03,2.53e+04
1189,-5.06e+04,-6.28e+03,-9.86e+03,-1.18e+04,-1.01e+04,-8.78e+02,5.05e+04
1190,-2.60e+04,-3.13e+03,-3.88e+03,-7.59e+03,-4.19e+03,-4.10e+03,2.79e+04
1191,-1.59e+04,-3.48e+03,-4.41e+03,-9.24e+03,-3.99e+03,-6.66e+03,2.41e+04
1192,-6.64e+04,-1.31e+04,-1.66e+04,-1.46e+04,-9.38e+03,-8.78e+02,5.97e+04
1193,-4.44e+04,-7.66e+03,-1.30e+04,-1.39e+04,-1.34e+04,-6.50e+03,4.94e+04
1194,-2.01e+04,-8.62e+03,-4.26e+03,-2.17e+04,-3.48e+03,-2.97e+03,4.09e+04
1195,-5.11e+04,-1.48e+04,-1.71e+04,-1.68e+04,-1.24e+04,-5.01e+03,5.12e+04
1196,-5.54e+04,-1.24e+04,-1.77e+04,-1.88e+04,-1.71e+04,-6.50e+03,6.09e+04
1197,-9.68e+03,-4.17e+03,1.96e+02,-1.94e+04,-2.59e+03,-2.97e+03,3.54e+04
1198,-1.25e+04,-2.51e+04,-1.11e+04,-2.04e+04,-2.85e+03,-1.18e+04,4.33e+04
1199,-1.39e+05,-7.85e+04,-5.31e+04,-5.76e+04,-2.96e+04,-8.39e+03,1.36e+05
1200,-1.53e+04,-9.14e+03,1.88e+03,-2.27e+04,-3.35e+03,-3.38e+03,4.29e+04
1201,-3.71e+04,-1.59e+04,-1.59e+04,-3.72e+03,-7.61e+03,0.00e+00,2.58e+04
1202,-4.50e+04,-1.93e+04,-1.93e+04,3.56e+03,-3.92e+03,0.00e+00,2.73e+04
1203,-3.16e+04,-9.90e+01,-7.62e+03,1.11e+03,-6.13e+03,3.92e+03,3.12e+04
1204,-4.84e+04,-1.29e+03,-7.72e+03,3.17e+02,-1.01e+04,3.82e+02,4.76e+04
1205,-3.42e+04,-4.68e+03,-7.67e+03,-1.03e+03,-6.71e+03,4.57e+03,3.15e+04
1206,-4.08e+04,-4.04e+03,-1.16e+04,-6.74e+02,-5.78e+03,3.92e+03,3.58e+04
1207,-6.43e+04,-8.07e+03,-1.45e+04,-2.42e+03,-9.38e+03,3.82e+02,5.59e+04
1208,-4.13e+04,-2.43e+02,-9.82e+03,-1.57e+03,-1.34e+04,-3.95e+03,4.45e+04
1209,-5.06e+04,2.28e+02,-7.07e+03,1.36e+03,-6.92e+03,-9.37e+02,4.92e+04
1210,-5.75e+04,-4.47e+02,-1.19e+04,9.79e+02,-9.78e+03,-8.16e+02,5.50e+04
1211,-5.22e+04,-4.94e+03,-1.45e+04,-6.40e+03,-1.71e+04,-3.95e+03,5.40e+04
1212,-5.95e+04,-3.60e+03,-1.09e+04,-3.22e+03,-6.99e+03,-9.37e+02,5.43e+04
1213,-6.53e+04,-3.02e+03,-1.10e+04,-8.91e+03,-5.79e+03,-5.51e+03,6.22e+04
1214,-1.20e+05,-3.54e+04,-3.47e+04,1.39e+04,-2.96e+04,-3.10e+03,1.02e+05
1215,-4.19e+04,-1.24e+03,-3.95e+03,-5.66e+03,-1.22e+04,-2.49e+03,4.60e+04
1216,-1.29e+04,-5.53e+03,-5.53e+03,7.22e+03,-2.27e+03,0.00e+00,1.50e+04
1217,-4.50e+04,-1.93e+04,-1.93e+04,3.56e+03,-3.92e+03,0.00e+00,2.73e+04
1218,-3.14e+04,4.02e+02,-7.40e+03,7.98e+03,-6.13e+03,3.68e+03,3.42e+04
1219,-1.57e+04,-8.58e+02,-2.87e+03,1.18e+04,-2.91e+03,9.54e+02,2.53e+04
1220,-2.77e+04,-8.11e+03,-1.25e+04,9.21e+03,-6.92e+03,-8.38e+02,2.68e+04
1221,-4.06e+04,-3.54e+03,-1.13e+04,6.19e+03,-5.78e+03,3.68e+03,3.74e+04
1222,-1.95e+04,-2.46e+03,-4.47e+03,6.85e+03,-2.58e+03,9.54e+02,2.06e+04
1223,-1.43e+04,-2.77e+02,-3.22e+03,1.03e+04,-3.46e+03,7.61e+03,2.63e+04
1224,-5.01e+04,1.27e+03,-6.62e+03,1.06e+04,-6.92e+03,-1.48e+02,5.27e+04
1225,-2.79e+04,2.84e+02,-2.51e+03,7.83e+03,-1.13e+03,4.15e+03,3.10e+04
1226,-1.66e+04,-1.24e+03,-4.19e+03,7.66e+03,-4.11e+03,7.61e+03,2.45e+04
1227,-5.91e+04,-2.55e+03,-1.04e+04,5.98e+03,-6.99e+03,-1.48e+02,5.54e+04
1228,-7.59e+04,-2.78e+04,-2.16e+04,2.41e+04,-5.79e+03,-1.26e+03,6.70e+04
1229,-2.64e+04,3.55e+03,-3.76e+03,1.26e+04,-6.85e+03,5.43e+02,3.67e+04
1230,-4.06e+04,1.57e+03,-7.65e+03,1.02e+04,-1.04e+04,2.25e+03,4.61e+04
1231,-1.29e+04,-5.53e+03,-5.53e+03,7.22e+03,-2.27e+03,0.00e+00,1.50e+04
1232,1.68e+04,7.20e+03,7.20e+03,8.58e+03,1.45e+03,0.00e+00,1.79e+04
1233,1.11e+04,-1.01e+03,2.40e+03,1.14e+04,2.32e+03,6.41e+03,2.54e+04
1234,-1.49e+04,1.06e+03,-2.05e+03,1.44e+04,-2.91e+03,1.05e+03,2.95e+04
1235,5.12e+03,5.14e+03,7.10e+03,1.14e+04,3.13e+03,2.11e+03,2.10e+04
1236,1.41e+04,2.95e+02,3.70e+03,8.21e+03,2.11e+03,6.41e+03,2.22e+04
1237,-1.87e+04,-5.38e+02,-3.65e+03,9.50e+03,-2.58e+03,1.05e+03,2.40e+04
1238,-1.38e+04,1.07e+03,-2.65e+03,1.15e+04,-3.46e+03,7.30e+03,2.78e+04
1239,1.78e+04,-9.98e+02,2.10e+03,1.46e+04,2.50e+03,7.38e+02,3.11e+04
1240,-7.87e+03,-2.33e+03,-5.02e+03,1.11e+04,-4.46e+03,4.39e+03,2.26e+04
1241,-1.60e+04,1.06e+02,-3.61e+03,8.93e+03,-4.11e+03,7.30e+03,2.58e+04
1242,2.01e+04,-2.68e+01,3.07e+03,9.06e+03,2.38e+03,7.38e+02,2.48e+04
1243,2.74e+04,1.37e+04,8.88e+03,1.89e+04,2.15e+03,9.54e+02,3.69e+04
1244,-3.53e+04,-1.73e+04,-1.27e+04,2.18e+04,-6.85e+03,6.54e+02,4.46e+04
1245,1.04e+04,-1.59e+03,3.39e+03,1.15e+04,3.66e+03,2.63e+03,2.38e+04
1246,3.23e+04,1.38e+04,1.38e+04,3.07e+03,5.96e+03,0.00e+00,2.18e+04
1247,1.68e+04,7.20e+03,7.20e+03,8.58e+03,1.45e+03,0.00e+00,1.79e+04
1248,1.17e+04,4.82e+02,3.03e+03,9.16e+03,2.32e+03,6.60e+03,2.24e+04
1249,4.01e+04,-9.40e+02,6.23e+03,1.01e+04,8.07e+03,5.31e+02,4.40e+04
1250,1.83e+04,-3.39e+02,4.90e+02,7.67e+03,1.86e+03,4.18e+03,2.39e+04
1251,1.48e+04,1.78e+03,4.33e+03,5.99e+03,2.11e+03,6.60e+03,1.98e+04
1252,5.15e+04,3.96e+03,1.11e+04,7.29e+03,7.16e+03,5.31e+02,4.78e+04
1253,3.63e+04,-2.24e+03,7.18e+03,7.78e+03,9.91e+03,4.35e+03,4.18e+04
1254,1.85e+04,6.84e+02,2.82e+03,1.25e+04,2.50e+03,6.25e+02,2.79e+04
1255,4.06e+04,3.12e+03,1.11e+04,9.59e+03,8.96e+03,2.82e+03,4.13e+04
1256,4.41e+04,1.09e+03,1.05e+04,5.37e+03,1.21e+04,4.35e+03,4.60e+04
1257,2.08e+04,1.65e+03,3.79e+03,6.99e+03,2.38e+03,6.25e+02,2.22e+04
1258,1.88e+04,-6.34e+03,2.71e+02,1.03e+04,2.15e+03,3.16e+02,2.90e+04
1259,9.74e+04,3.67e+04,2.99e+04,2.76e+04,2.05e+04,1.76e+03,8.78e+04
1260,1.98e+04,6.34e+02,-3.33e+02,7.41e+03,3.82e+03,1.79e+03,2.46e+04
1261,3.23e+04,1.38e+04,1.38e+04,3.07e+03,5.96e+03,0.00e+00,2.18e+04
1262,5.10e+04,2.19e+04,2.19e+04,-4.91e+03,5.09e+03,0.00e+00,3.16e+04
1263,3.60e+04,1.47e+03,9.53e+03,2.44e+02,7.54e+03,-2.02e+03,3.41e+04
1264,4.03e+04,-3.52e+02,6.48e+03,1.55e+03,8.07e+03,2.82e+02,4.03e+04
1265,3.61e+04,5.67e+03,1.16e+04,1.31e+03,7.76e+03,-3.69e+03,3.17e+04
1266,4.70e+04,6.17e+03,1.42e+04,-1.84e+03,7.58e+03,-2.02e+03,4.00e+04
1267,5.17e+04,4.54e+03,1.14e+04,-1.23e+03,7.16e+03,2.82e+02,4.59e+04
1268,3.67e+04,-1.40e+03,7.53e+03,1.23e+03,9.91e+03,4.67e+03,3.94e+04
1269,5.83e+04,5.25e+02,6.70e+03,-4.03e+02,8.21e+03,-2.34e+01,5.68e+04
1270,5.13e+04,6.56e+02,8.27e+03,-2.00e+03,7.47e+03,2.06e+03,4.93e+04
1271,4.44e+04,1.92e+03,1.09e+04,-1.18e+03,1.21e+04,4.67e+03,4.49e+04
1272,7.51e+04,7.74e+03,1.39e+04,-7.48e+03,8.61e+03,-2.34e+01,6.75e+04
1273,7.61e+04,1.65e+04,1.46e+04,9.05e+03,1.03e+04,-2.46e+03,6.52e+04
1274,8.55e+04,9.05e+03,1.80e+04,-8.88e+03,2.05e+04,7.86e+02,8.21e+04
1275,5.20e+04,-4.16e+03,5.75e+03,-8.31e+02,1.30e+04,-8.60e+01,5.66e+04
1276,1.93e+04,8.29e+03,8.29e+03,-6.89e+03,4.62e+03,0.00e+00,1.81e+04
1277,5.10e+04,2.19e+04,2.19e+04,-4.91e+03,5.09e+03,0.00e+00,3.16e+04
1278,3.77e+04,5.26e+03,1.12e+04,-8.44e+03,7.54e+03,-3.01e+03,3.61e+04
1279,2.29e+04,4.62e+03,4.23e+03,-1.22e+04,4.64e+03,-1.64e+03,2.93e+04
1280,3.42e+04,1.25e+04,1.45e+04,-9.67e+03,8.62e+03,6.31e+02,3.06e+04
1281,4.86e+04,9.96e+03,1.59e+04,-1.05e+04,7.58e+03,-3.01e+03,4.28e+04
1282,2.26e+04,4.50e+03,4.11e+03,-1.24e+04,3.25e+03,-1.64e+03,2.89e+04
1283,1.35e+04,5.16e+03,3.09e+03,-1.57e+04,5.43e+03,-1.05e+04,3.54e+04
1284,6.28e+04,1.09e+04,1.12e+04,-2.04e+04,8.21e+03,-2.90e+03,6.44e+04
1285,3.20e+04,1.55e+03,2.24e+03,-1.34e+04,1.54e+03,-5.09e+03,3.91e+04
1286,6.12e+03,1.99e+03,-8.01e+01,-1.46e+04,4.27e+03,-1.05e+04,3.25e+04
1287,7.96e+04,1.81e+04,1.84e+04,-2.75e+04,8.61e+03,-2.90e+03,7.92e+04
1288,8.86e+04,4.55e+04,2.70e+04,-3.92e+04,1.03e+04,-1.43e+04,9.23e+04
1289,1.81e+04,3.82e+04,1.30e+04,-3.01e+04,2.73e+03,-3.78e+03,5.75e+04
1290,5.51e+04,2.94e+04,2.14e+04,-2.85e+04,1.46e+04,-1.24e+04,6.69e+04
1291,1.93e+04,8.29e+03,8.29e+03,-6.89e+03,4.62e+03,0.00e+00,1.81e+04
1292,9.71e+03,4.16e+03,4.16e+03,-6.95e+03,1.82e+03,0.00e+00,1.36e+04
1293,7.50e+03,8.20e+03,3.74e+03,-8.01e+03,3.32e+03,-3.87e+03,1.70e+04
1294,2.44e+04,8.13e+03,5.73e+03,-1.07e+04,4.64e+03,-4.84e+02,2.68e+04
1295,1.27e+04,4.39e+03,2.10e+03,-8.07e+03,2.07e+03,-1.19e+03,1.75e+04
1296,5.17e+03,7.20e+03,2.74e+03,-5.13e+03,2.28e+03,-3.87e+03,1.24e+04
1297,2.41e+04,8.01e+03,5.61e+03,-1.09e+04,3.25e+03,-4.84e+02,2.63e+04
1298,1.43e+04,6.92e+03,3.84e+03,-6.42e+03,5.43e+03,-6.60e+03,2.07e+04
1299,8.05e+03,1.49e+04,4.01e+03,-1.10e+04,1.48e+03,-2.99e+03,2.20e+04
1300,1.96e+04,1.57e+04,8.22e+03,-9.55e+03,4.92e+03,-4.30e+03,2.24e+04
1301,6.87e+03,3.75e+03,6.77e+02,-5.34e+03,4.27e+03,-6.60e+03,1.73e+04
1302,3.12e+03,1.28e+04,1.90e+03,-5.65e+03,7.99e+02,-2.99e+03,1.52e+04
1303,3.01e+03,6.55e+03,1.52e+03,-5.22e+03,-4.94e+02,-1.93e+03,1.07e+04
1304,2.84e+03,2.51e+03,-2.32e+03,-2.85e+03,2.73e+03,1.53e+02,8.48e+03
1305,-4.71e+02,9.94e+03,3.47e+02,-4.34e+03,1.36e+03,-3.33e+03,1.40e+04
1306,1.36e+03,5.83e+02,5.83e+02,-3.40e+03,1.49e+03,0.00e+00,6.48e+03
1307,9.71e+03,4.16e+03,4.16e+03,-6.95e+03,1.82e+03,0.00e+00,1.36e+04
1308,6.29e+03,5.38e+03,2.53e+03,-5.59e+03,3.32e+03,-2.55e+03,1.26e+04
1309,3.87e+03,7.85e+03,2.25e+03,-6.21e+03,8.53e+02,-1.40e+03,1.22e+04
1310,7.95e+03,7.75e+03,5.06e+03,-6.17e+03,2.65e+03,-1.61e+03,1.23e+04
1311,3.96e+03,4.38e+03,1.53e+03,-2.71e+03,2.28e+03,-2.55e+03,8.02e+03
1312,2.07e+03,7.08e+03,1.48e+03,-3.16e+03,3.65e+02,-1.40e+03,8.04e+03
1313,1.44e+03,4.90e+03,8.82e+02,-2.83e+03,1.85e+02,-2.07e+03,7.15e+03
1314,5.04e+03,7.84e+03,1.01e+03,-4.09e+03,1.48e+03,-2.06e+03,1.02e+04
1315,5.90e+02,5.19e+03,-2.61e+02,-2.61e+03,8.25e+02,-2.03e+03,7.79e+03
1316,6.53e+02,4.56e+03,5.46e+02,-9.60e+02,-3.23e+02,-2.07e+03,5.62e+03
1317,1.18e+02,5.73e+03,-1.10e+03,1.21e+03,7.99e+02,-2.06e+03,7.68e+03
1318,2.04e+02,9.35e+00,-1.28e+03,3.56e+02,-4.94e+02,-7.37e+02,2.17e+03
1319,5.92e+02,-5.00e+02,-1.02e+03,-9.98e+02,2.83e+02,-8.91e+02,2.76e+03
1320,7.81e+02,1.21e+03,-1.47e+03,-2.32e+02,-2.49e+02,-5.95e+02,2.76e+03
1321,1.36e+03,5.83e+02,5.83e+02,-3.40e+03,1.49e+03,0.00e+00,6.48e+03
1322,4.01e+02,1.72e+02,1.72e+02,-2.73e+03,6.20e+02,0.00e+00,4.86e+03
1323,1.26e+03,2.81e+03,7.24e+02,-2.64e+03,8.82e+02,-8.31e+02,5.37e+03
1324,2.20e+03,3.95e+03,5.78e+02,-4.34e+03,8.53e+02,-8.82e+02,8.35e+03
1325,7.53e+02,8.08e+02,-4.77e+02,-3.18e+03,9.42e+02,-8.47e+01,5.88e+03
1326,6.40e+02,2.55e+03,4.58e+02,-1.35e+03,4.80e+02,-8.31e+02,3.51e+03
1327,3.94e+02,3.18e+03,-1.95e+02,-1.29e+03,3.65e+02,-8.82e+02,4.18e+03
1328,2.97e+02,2.24e+03,-2.59e+02,-1.35e+03,1.85e+02,-1.07e+03,3.76e+03
1329,7.83e+02,2.74e+03,6.05e+01,-1.44e+03,3.15e+02,-9.62e+02,3.88e+03
1330,3.30e+02,2.80e+03,2.36e+01,-1.49e+03,2.07e+02,-8.53e+02,3.99e+03
1331,-4.89e+02,1.90e+03,-5.96e+02,5.20e+02,-3.23e+02,-1.07e+03,3.25e+03
1332,4.54e+02,2.60e+03,-8.05e+01,-2.03e+02,9.25e+01,-9.62e+02,3.00e+03
1333,-7.29e+01,-3.42e+02,-1.04e+03,-1.18e+02,-1.50e+02,-7.59e+02,1.61e+03
1334,4.95e+02,-7.26e+02,-1.11e+03,7.63e+02,2.83e+02,-5.06e+02,2.21e+03
1335,-2.48e+01,1.20e+03,-4.41e+02,3.12e+02,-1.76e+01,-1.33e+03,2.78e+03
1336,2.29e+03,9.81e+02,9.81e+02,-1.98e+03,9.40e+02,0.00e+00,4.01e+03
1337,4.01e+02,1.72e+02,1.72e+02,-2.73e+03,6.20e+02,0.00e+00,4.86e+03
1338,4.80e+02,9.90e+02,-5.78e+01,-1.90e+03,8.82e+02,-2.20e+02,3.75e+03
1339,2.38e+03,1.45e+03,4.14e+02,-1.96e+03,6.40e+02,-4.09e+02,4.02e+03
1340,1.62e+03,1.47e+03,5.80e+02,-2.13e+03,5.55e+02,-1.80e+02,3.95e+03
1341,-1.41e+02,7.24e+02,-3.24e+02,-6.14e+02,4.80e+02,-2.20e+02,1.71e+03
1342,1.70e+02,5.01e+02,-5.33e+02,-6.75e+02,3.59e+02,-4.09e+02,1.76e+03
1343,9.83e+01,4.60e+02,-7.70e+02,-5.63e+02,4.49e+02,-3.26e+02,1.75e+03
1344,2.19e-01,9.16e+02,-7.23e+02,-8.41e+02,3.15e+02,-4.84e+02,2.27e+03
1345,-9.26e+01,4.39e+02,-6.52e+02,-6.33e+02,4.36e+02,-3.96e+02,1.77e+03
1346,-2.39e+02,3.15e+02,-9.14e+02,7.76e+01,9.58e+01,-3.26e+02,1.23e+03
1347,-3.29e+02,7.75e+02,-8.64e+02,3.93e+02,9.25e+01,-4.84e+02,1.81e+03
1348,-4.55e+01,-2.78e+02,-1.02e+03,2.35e+02,-1.50e+02,-3.49e+02,1.17e+03
1349,-1.33e+02,-8.02e+01,-1.12e+03,1.75e+02,1.34e+02,-3.02e+02,1.20e+03
1350,-4.31e+02,1.08e+01,-1.16e+03,1.65e+02,4.13e+01,-2.21e+02,1.14e+03
1351,-2.54e+03,-1.09e+03,-1.09e+03,-2.30e+03,-6.36e+02,0.00e+00,4.39e+03
1352,-4.10e+02,-1.76e+02,-1.76e+02,-2.97e+03,-2.19e+02,0.00e+00,5.16e+03
1353,-5.66e+02,-1.29e+03,2.23e+02,-2.32e+03,-5.97e+02,-5.23e+01,4.36e+03
1354,-2.47e+03,-1.56e+03,-3.01e+02,-2.12e+03,-2.25e+02,-2.79e+02,4.17e+03
1355,-1.63e+03,-1.34e+03,-4.41e+02,-2.38e+03,-1.74e+02,-1.04e+02,4.28e+03
1356,1.93e+02,-9.62e+02,5.48e+02,-6.68e+02,-3.12e+02,-5.23e+01,1.87e+03
1357,-1.06e+02,-5.43e+02,7.15e+02,-7.08e+02,-1.22e+02,-2.79e+02,1.73e+03
1358,-6.61e+01,-5.94e+02,1.05e+03,-6.37e+02,-2.64e+02,-1.61e+02,1.90e+03
1359,5.53e+01,-9.80e+02,9.71e+02,-8.99e+02,-1.78e+02,-3.14e+02,2.38e+03
1360,1.95e+02,-5.86e+02,9.22e+02,-7.18e+02,-2.63e+02,-2.54e+02,1.91e+03
1361,2.78e+02,-4.46e+02,1.20e+03,1.21e+02,-2.49e+01,-1.61e+02,1.47e+03
1362,4.09e+02,-8.28e+02,1.12e+03,4.61e+02,-9.97e+01,-3.14e+02,1.97e+03
1363,-8.70e+00,3.56e+02,1.27e+03,3.45e+02,2.01e+02,-2.16e+02,1.38e+03
1364,2.08e+02,1.57e+02,1.42e+03,2.08e+02,-9.66e+01,-1.55e+02,1.33e+03
1365,4.18e+02,-6.23e+01,1.39e+03,2.42e+02,-1.92e+01,-3.82e+01,1.35e+03
1366,-1.91e+03,-8.19e+02,-8.19e+02,-4.22e+03,-1.01e+03,0.00e+00,7.59e+03
1367,-4.10e+02,-1.76e+02,-1.76e+02,-2.97e+03,-2.19e+02,0.00e+00,5.16e+03
1368,-1.59e+03,-3.68e+03,-8.03e+02,-3.23e+03,-5.97e+02,-4.59e+02,6.29e+03
1369,-2.42e+03,-4.38e+03,-5.51e+02,-4.78e+03,-1.69e+02,-3.87e+02,8.95e+03
1370,-1.45e+03,-1.82e+03,-1.25e+02,-3.77e+03,-4.35e+02,1.91e+02,6.77e+03
1371,-8.33e+02,-3.36e+03,-4.78e+02,-1.57e+03,-3.12e+02,-4.59e+02,3.96e+03
1372,-4.10e+02,-3.52e+03,3.11e+02,-1.37e+03,1.16e+01,-3.87e+02,4.30e+03
1373,-5.59e+02,-3.01e+03,5.93e+02,-1.64e+03,5.54e+01,-5.57e+02,4.38e+03
1374,-8.16e+02,-3.01e+03,1.00e+02,-1.53e+03,-1.78e+02,-4.82e+02,3.94e+03
1375,-1.49e+02,-3.15e+03,3.10e+02,-1.55e+03,5.15e+01,-3.48e+02,4.26e+03
1376,5.56e+02,-2.53e+03,1.07e+03,8.49e+02,4.13e+02,-5.57e+02,3.87e+03
1377,-4.62e+02,-2.86e+03,2.52e+02,-1.72e+02,-9.97e+01,-4.82e+02,2.96e+03
1378,7.01e+01,5.40e+02,1.35e+03,-1.19e+02,2.01e+02,-5.23e+02,1.49e+03
1379,-4.78e+02,9.55e+02,1.67e+03,8.88e+02,-3.75e+02,-1.99e+02,2.55e+03
1380,4.27e+01,-1.08e+03,9.99e+02,3.96e+02,-4.68e+01,-1.05e+03,2.65e+03
1381,-1.91e+03,-8.19e+02,-8.19e+02,-4.22e+03,-1.01e+03,0.00e+00,7.59e+03
1382,-1.08e+04,-4.61e+03,-4.61e+03,-7.67e+03,-6.23e+02,0.00e+00,1.47e+04
1383,-8.63e+03,-7.23e+03,-2.63e+03,-7.36e+03,-2.35e+03,-1.90e+03,1.48e+04
1384,-4.28e+03,-8.71e+03,-2.41e+03,-6.84e+03,-1.69e+02,-5.52e+02,1.31e+04
1385,-8.26e+03,-7.51e+03,-4.31e+03,-7.00e+03,-1.87e+03,-1.28e+03,1.33e+04
1386,-5.46e+03,-5.87e+03,-1.27e+03,-3.45e+03,-1.49e+03,-1.90e+03,8.52e+03
1387,-2.26e+03,-7.84e+03,-1.54e+03,-3.43e+03,1.16e+01,-5.52e+02,8.48e+03
1388,-2.12e+03,-6.66e+03,-9.71e+02,-3.70e+03,5.54e+01,-1.19e+03,8.51e+03
1389,-5.65e+03,-8.65e+03,-8.65e+02,-4.50e+03,-7.26e+02,-8.87e+02,1.05e+04
1390,-2.17e+03,-7.01e+03,-2.90e+02,-3.40e+03,-2.68e+02,-1.09e+03,8.63e+03
1391,-1.01e+03,-6.18e+03,-4.94e+02,-1.20e+03,4.13e+02,-1.19e+03,6.23e+03
1392,-7.77e+01,-6.26e+03,1.52e+03,1.41e+03,-4.99e+02,-8.87e+02,7.73e+03
1393,-4.50e+02,3.20e+02,2.21e+03,6.36e+02,8.61e+02,-3.91e+02,3.09e+03
1394,-5.60e+02,7.62e+02,1.58e+03,-1.06e+03,-3.75e+02,-3.66e+02,2.77e+03
1395,-2.06e+02,-1.97e+03,1.83e+03,-6.49e+01,4.20e+02,3.84e+02,3.44e+03
1396,-2.71e+04,-1.16e+04,-1.16e+04,-9.09e+03,-3.13e+03,0.00e+00,2.28e+04
1397,-1.08e+04,-4.61e+03,-4.61e+03,-7.67e+03,-6.23e+02,0.00e+00,1.47e+04
1398,-1.03e+04,-1.11e+04,-4.28e+03,-1.06e+04,-2.35e+03,-2.67e+03,2.05e+04
1399,-2.72e+04,-9.18e+03,-6.24e+03,-1.20e+04,-1.75e+03,1.22e+03,2.88e+04
1400,-1.83e+04,-8.63e+03,-5.35e+03,-1.03e+04,7.23e+01,-4.53e+02,2.14e+04
1401,-7.11e+03,-9.72e+03,-2.92e+03,-6.73e+03,-1.49e+03,-2.67e+03,1.41e+04
1402,-2.64e+04,-8.84e+03,-5.90e+03,-1.19e+04,-1.22e+03,1.22e+03,2.84e+04
1403,-2.05e+04,-1.01e+04,-4.02e+03,-9.05e+03,-3.30e+03,-5.53e+03,2.40e+04
1404,-8.93e+03,-1.63e+04,-4.15e+03,-1.20e+04,-7.26e+02,-1.18e+03,2.34e+04
1405,-1.99e+04,-1.67e+04,-7.25e+03,-1.06e+04,-3.76e+03,-2.76e+03,2.30e+04
1406,-1.01e+04,-5.69e+03,4.29e+02,-6.78e+03,-2.41e+03,-5.53e+03,1.82e+04
1407,-3.36e+03,-1.39e+04,-1.76e+03,-6.08e+03,-4.99e+02,-1.18e+03,1.57e+04
1408,-4.22e+03,-8.48e+03,-1.56e+03,-7.29e+03,8.61e+02,-1.41e+03,1.43e+04
1409,-3.43e+03,-3.05e+03,3.40e+03,-3.33e+03,-7.31e+02,1.21e+03,9.14e+03
1410,-4.22e+03,-1.21e+04,-7.43e+02,-5.79e+03,-2.76e+02,-2.15e+03,1.47e+04
1411,-2.71e+04,-1.16e+04,-1.16e+04,-9.09e+03,-3.13e+03,0.00e+00,2.28e+04
1412,-5.74e+04,-2.46e+04,-2.46e+04,-5.57e+03,-1.69e+03,0.00e+00,3.43e+04
1413,-5.15e+04,-7.20e+03,-1.20e+04,-1.18e+04,-3.28e+03,-2.58e+03,4.74e+04
1414,-2.56e+04,-5.34e+03,-4.59e+03,-1.37e+04,-1.75e+03,9.12e+02,3.16e+04
1415,-3.92e+04,-1.21e+04,-1.38e+04,-1.09e+04,-6.01e+03,2.07e+03,3.42e+04
1416,-6.73e+04,-1.40e+04,-1.88e+04,-1.46e+04,-2.55e+03,-2.58e+03,5.73e+04
1417,-2.48e+04,-5.00e+03,-4.25e+03,-1.37e+04,-1.22e+03,9.12e+02,3.12e+04
1418,-1.96e+04,-8.16e+03,-3.17e+03,-2.17e+04,-3.30e+03,-7.68e+03,4.28e+04
1419,-6.87e+04,-1.28e+04,-1.26e+04,-2.26e+04,-8.39e+02,-1.39e+02,6.83e+04
1420,-4.72e+04,-7.81e+03,-8.01e+03,-1.79e+04,3.58e+03,-2.51e+03,5.07e+04
1421,-9.22e+03,-3.71e+03,1.28e+03,-1.94e+04,-2.41e+03,-7.68e+03,3.75e+04
1422,-8.45e+04,-1.95e+04,-1.94e+04,-2.99e+04,-4.28e+02,-1.39e+02,8.31e+04
1423,-1.38e+05,-7.81e+04,-5.21e+04,-5.76e+04,7.58e+03,-6.74e+03,1.27e+05
1424,-2.00e+04,-4.17e+04,-1.32e+04,-3.21e+04,-7.31e+02,2.68e+02,6.13e+04
1425,-5.01e+04,-2.86e+04,-1.57e+04,-3.20e+04,-1.02e+04,-9.52e+03,6.75e+04
1426,-4.50e+04,-1.93e+04,-1.93e+04,3.56e+03,-3.92e+03,0.00e+00,2.73e+04
1427,-5.74e+04,-2.46e+04,-2.46e+04,-5.57e+03,-1.69e+03,0.00e+00,3.43e+04
1428,-4.94e+04,-2.21e+03,-9.86e+03,3.17e+02,-3.28e+03,-1.32e+03,4.43e+04
1429,-4.49e+04,-1.50e+02,-7.62e+03,1.65e+03,-4.13e+03,-1.19e+03,4.23e+04
1430,-4.41e+04,-7.24e+03,-1.30e+04,4.65e+02,-4.28e+03,-4.73e+03,3.61e+04
1431,-6.52e+04,-8.98e+03,-1.66e+04,-2.42e+03,-2.55e+03,-1.32e+03,5.32e+04
1432,-5.66e+04,-5.13e+03,-1.26e+04,-1.62e+03,-3.79e+03,-1.19e+03,4.87e+04
1433,-5.09e+04,-7.21e+01,-7.77e+03,1.36e+03,-5.40e+03,3.51e+03,4.88e+04
1434,-6.39e+04,-1.60e+03,-7.84e+03,-4.62e+02,-8.39e+02,9.44e+02,5.95e+04
1435,-6.45e+04,-2.01e+03,-1.13e+04,-1.01e+03,-2.10e+03,1.84e+03,5.86e+04
1436,-5.98e+04,-3.90e+03,-1.16e+04,-3.22e+03,-5.47e+03,3.51e+03,5.40e+04
1437,-7.97e+04,-8.39e+03,-1.46e+04,-7.81e+03,-4.28e+02,9.44e+02,6.98e+04
1438,-1.20e+05,-3.50e+04,-3.37e+04,1.39e+04,7.58e+03,-1.45e+03,8.98e+04
1439,-8.77e+04,-1.20e+04,-2.04e+04,-9.24e+03,-1.19e+04,9.00e+02,7.65e+04
1440,-6.06e+04,-6.29e+02,-7.22e+03,-3.24e+03,-4.79e+03,1.26e+03,5.79e+04
1441,-4.50e+04,-1.93e+04,-1.93e+04,3.56e+03,-3.92e+03,0.00e+00,2.73e+04
1442,-1.89e+04,-8.08e+03,-8.08e+03,9.05e+03,-4.91e+02,0.00e+00,1.90e+04
1443,-1.60e+04,-1.07e+03,-3.37e+03,1.18e+04,-1.10e+03,4.95e+03,2.62e+04
1444,-4.47e+04,4.60e+02,-7.36e+03,1.08e+04,-4.13e+03,-1.01e+03,4.64e+04
1445,-2.64e+04,-3.53e+03,-5.25e+03,9.42e+03,9.11e+02,3.72e+03,2.82e+04
1446,-1.97e+04,-2.67e+03,-4.96e+03,6.85e+03,-7.67e+02,4.95e+03,2.17e+04
1447,-5.63e+04,-4.52e+03,-1.23e+04,7.54e+03,-3.79e+03,-1.01e+03,5.05e+04
1448,-5.04e+04,9.74e+02,-7.32e+03,1.06e+04,-5.40e+03,4.30e+03,5.26e+04
1449,-2.01e+04,-1.10e+03,-3.17e+03,1.32e+04,-5.55e+02,-2.14e+03,2.94e+04
1450,-4.30e+04,-2.78e+03,-9.79e+03,1.00e+04,-6.74e+03,9.04e+02,4.27e+04
1451,-5.94e+04,-2.86e+03,-1.12e+04,5.98e+03,-5.47e+03,4.30e+03,5.52e+04
1452,-2.16e+04,-1.73e+03,-3.79e+03,6.76e+03,-5.22e+02,-2.14e+03,2.26e+04
1453,-2.63e+04,3.63e+03,-3.56e+03,1.26e+04,1.51e+03,5.78e+02,3.49e+04
1454,-9.87e+04,-3.76e+04,-3.14e+04,2.74e+04,-1.19e+04,2.46e+03,8.28e+04
1455,-3.39e+04,-2.25e+03,-3.95e+03,9.15e+03,1.65e+03,5.19e+02,3.48e+04
1456,1.68e+04,7.20e+03,7.20e+03,8.58e+03,1.45e+03,0.00e+00,1.79e+04
1457,-1.89e+04,-8.08e+03,-8.08e+03,9.05e+03,-4.91e+02,0.00e+00,1.90e+04
1458,-1.51e+04,8.48e+02,-2.54e+03,1.44e+04,-1.10e+03,5.05e+03,3.03e+04
1459,1.61e+04,-1.16e+03,2.28e+03,1.55e+04,1.49e+03,-1.41e+03,3.14e+04
1460,-2.53e+03,-2.34e+03,-3.56e+03,1.31e+04,-3.77e+03,1.01e+03,2.36e+04
1461,-1.89e+04,-7.49e+02,-4.14e+03,9.50e+03,-7.67e+02,5.05e+03,2.50e+04
1462,1.98e+04,4.29e+02,3.87e+03,9.62e+03,1.26e+03,-1.41e+03,2.47e+04
1463,1.79e+04,-8.89e+02,2.35e+03,1.46e+04,1.85e+03,5.73e+03,3.24e+04
1464,-1.93e+04,6.85e+02,-2.40e+03,1.52e+04,-5.55e+02,-2.01e+03,3.25e+04
1465,2.55e+03,2.69e+02,1.88e+03,1.24e+04,5.09e+03,2.00e+03,2.35e+04
1466,2.02e+04,8.22e+01,3.33e+03,9.06e+03,1.74e+03,5.73e+03,2.65e+04
1467,-2.08e+04,5.92e+01,-3.03e+03,8.73e+03,-5.22e+02,-2.01e+03,2.49e+04
1468,-3.52e+04,-1.73e+04,-1.25e+04,2.18e+04,1.51e+03,6.89e+02,4.31e+04
1469,3.52e+04,1.69e+04,1.20e+04,2.15e+04,3.71e+03,2.29e+02,4.33e+04
1470,-2.93e+03,1.11e+03,-9.73e+02,1.19e+04,-4.28e+03,1.28e+03,2.23e+04
1471,1.68e+04,7.20e+03,7.20e+03,8.58e+03,1.45e+03,0.00e+00,1.79e+04
1472,4.95e+04,2.12e+04,2.12e+04,3.69e+03,1.33e+03,0.00e+00,2.91e+04
1473,4.06e+04,-3.68e+02,7.56e+03,1.01e+04,2.88e+03,3.27e+03,4.22e+04
1474,1.71e+04,1.18e+03,3.29e+03,1.27e+04,1.49e+03,-1.42e+03,2.69e+04
1475,3.00e+04,7.01e+03,1.10e+04,1.00e+04,5.29e+03,-2.08e+03,2.92e+04
1476,5.21e+04,4.53e+03,1.25e+04,7.29e+03,1.97e+03,3.27e+03,4.64e+04
1477,2.08e+04,2.76e+03,4.87e+03,6.81e+03,1.26e+03,-1.42e+03,2.10e+04
1478,1.86e+04,7.93e+02,3.07e+03,1.25e+04,1.85e+03,5.62e+03,2.93e+04
1479,5.34e+04,-9.81e+02,6.77e+03,1.09e+04,1.43e+03,-1.90e+03,5.45e+04
1480,3.77e+04,2.02e+03,6.04e+03,9.33e+03,-2.41e+03,2.35e+03,3.79e+04
1481,2.09e+04,1.76e+03,4.05e+03,6.99e+03,1.74e+03,5.62e+03,2.40e+04
1482,6.06e+04,2.07e+03,9.82e+03,5.81e+03,1.01e+03,-1.90e+03,5.61e+04
1483,9.80e+04,3.73e+04,3.13e+04,2.76e+04,-5.38e+03,-1.91e+03,8.04e+04
1484,2.68e+04,-2.74e+03,3.62e+03,1.23e+04,3.71e+03,-1.02e+02,3.49e+04
1485,3.92e+04,2.46e+02,5.63e+03,9.39e+03,6.00e+03,1.42e+03,4.14e+04
1486,5.10e+04,2.19e+04,2.19e+04,-4.91e+03,5.09e+03,0.00e+00,3.16e+04
1487,4.95e+04,2.12e+04,2.12e+04,3.69e+03,1.33e+03,0.00e+00,2.91e+04
1488,4.09e+04,2.20e+02,7.81e+03,1.55e+03,2.88e+03,3.02e+03,3.82e+04
1489,5.39e+04,1.95e+03,9.00e+03,3.14e+02,5.60e+03,8.00e+02,4.98e+04
1490,4.25e+04,6.66e+03,1.07e+04,-4.32e+02,3.04e+03,5.15e+03,3.56e+04
1491,5.23e+04,5.12e+03,1.27e+04,-1.23e+03,1.97e+03,3.02e+03,4.44e+04
1492,7.07e+04,9.13e+03,1.62e+04,-2.63e+03,5.10e+03,8.00e+02,5.92e+04
1493,5.93e+04,1.55e+03,9.09e+03,-4.03e+02,7.98e+03,-1.92e+03,5.62e+04
1494,5.39e+04,1.37e+01,7.19e+03,1.66e+03,1.43e+03,-2.26e+03,5.09e+04
1495,6.65e+04,1.56e+03,1.27e+04,7.13e+01,5.37e+03,-1.23e+03,6.09e+04
1496,7.62e+04,8.77e+03,1.63e+04,-7.48e+03,8.38e+03,-1.92e+03,6.69e+04
1497,6.10e+04,3.06e+03,1.02e+04,-3.47e+03,1.01e+03,-2.26e+03,5.52e+04
1498,8.61e+04,9.65e+03,1.94e+04,-8.88e+03,-5.38e+03,-2.88e+03,7.45e+04
1499,1.23e+05,3.74e+04,3.60e+04,1.44e+04,1.74e+04,4.96e+02,9.49e+04
1500,5.69e+04,1.77e+03,6.33e+03,-3.76e+03,2.87e+03,-1.79e+03,5.37e+04
1501,5.10e+04,2.19e+04,2.19e+04,-4.91e+03,5.09e+03,0.00e+00,3.16e+04
1502,3.03e+04,1.30e+04,1.30e+04,-1.01e+04,1.08e+03,0.00e+00,2.47e+04
1503,2.31e+04,4.84e+03,4.74e+03,-1.22e+04,3.49e+03,-4.91e+03,2.98e+04
1504,5.62e+04,7.33e+03,1.13e+04,-1.31e+04,5.60e+03,2.92e+02,5.31e+04
1505,3.49e+04,7.35e+03,8.33e+03,-9.96e+03,6.19e+02,-3.83e+03,3.28e+04
1506,2.28e+04,4.73e+03,4.62e+03,-1.24e+04,2.09e+03,-4.91e+03,2.96e+04
1507,7.30e+04,1.45e+04,1.85e+04,-1.61e+04,5.10e+03,2.92e+02,6.37e+04
1508,6.38e+04,1.19e+04,1.35e+04,-2.04e+04,7.98e+03,-4.80e+03,6.41e+04
1509,2.18e+04,9.03e+03,3.26e+03,-2.38e+04,3.92e+02,1.35e+03,4.45e+04
1510,5.50e+04,1.29e+04,1.43e+04,-1.90e+04,9.55e+03,-2.30e+03,5.55e+04
1511,8.06e+04,1.92e+04,2.08e+04,-2.75e+04,8.38e+03,-4.80e+03,7.89e+04
1512,9.41e+03,3.73e+03,-2.03e+03,-2.12e+04,5.12e+01,1.35e+03,3.81e+04
1513,1.83e+04,3.84e+04,1.34e+04,-3.01e+04,9.15e+02,-7.61e+03,5.84e+04
1514,1.43e+05,8.28e+04,5.54e+04,-6.09e+04,1.74e+04,-2.20e+03,1.34e+05
1515,3.84e+04,2.27e+04,8.46e+03,-3.10e+04,-4.62e+03,2.58e+03,6.03e+04
1516,9.71e+03,4.16e+03,4.16e+03,-6.95e+03,1.82e+03,0.00e+00,1.36e+04
1517,3.03e+04,1.30e+04,1.30e+04,-1.01e+04,1.08e+03,0.00e+00,2.47e+04
1518,2.46e+04,8.35e+03,6.25e+03,-1.07e+04,3.49e+03,-3.75e+03,2.69e+04
1519,1.14e+04,1.22e+04,4.35e+03,-1.18e+04,3.10e+02,-1.80e+02,2.18e+04
1520,2.15e+04,1.27e+04,9.46e+03,-1.10e+04,3.90e+03,-1.00e+03,2.29e+04
1521,2.43e+04,8.24e+03,6.13e+03,-1.09e+04,2.09e+03,-3.75e+03,2.67e+04
1522,7.69e+03,1.06e+04,2.78e+03,-7.42e+03,-1.41e+01,-1.80e+02,1.46e+04
1523,8.00e+03,1.48e+04,3.90e+03,-1.10e+04,5.14e+02,-2.33e+03,2.16e+04
1524,2.29e+04,1.16e+04,4.35e+03,-1.02e+04,3.92e+02,1.85e+03,2.41e+04
1525,1.60e+04,1.43e+04,4.73e+03,-9.86e+03,-1.36e+03,-5.71e+02,2.02e+04
1526,3.08e+03,1.27e+04,1.79e+03,-5.65e+03,-1.63e+02,-2.33e+03,1.48e+04
1527,1.05e+04,6.28e+03,-9.42e+02,-7.56e+03,5.12e+01,1.85e+03,1.68e+04
1528,3.03e+03,2.70e+03,-1.88e+03,-2.85e+03,9.15e+02,-3.68e+03,9.49e+03
1529,5.02e+03,9.83e+03,1.83e+03,-7.91e+03,8.78e+02,-1.22e+03,1.56e+04
1530,8.07e+03,1.25e+04,1.99e+03,-6.43e+03,8.74e+02,-1.17e+03,1.46e+04
1531,9.71e+03,4.16e+03,4.16e+03,-6.95e+03,1.82e+03,0.00e+00,1.36e+04
1532,2.13e+03,9.14e+02,9.14e+02,-4.66e+03,3.47e+02,0.00e+00,8.19e+03
1533,3.90e+03,7.88e+03,2.32e+03,-6.21e+03,1.15e+03,-1.17e+03,1.22e+04
1534,9.55e+03,7.96e+03,2.55e+03,-8.20e+03,3.10e+02,5.65e+01,1.56e+04
1535,6.43e+03,4.95e+03,1.82e+03,-6.71e+03,1.80e+02,3.41e+02,1.23e+04
1536,2.10e+03,7.11e+03,1.55e+03,-3.16e+03,6.59e+02,-1.17e+03,7.97e+03
1537,5.89e+03,6.39e+03,9.85e+02,-3.80e+03,-1.41e+01,5.65e+01,8.37e+03
1538,4.99e+03,7.80e+03,8.94e+02,-4.09e+03,5.14e+02,-1.41e+03,9.64e+03
1539,2.46e+03,7.47e+03,1.06e+03,-4.04e+03,4.61e+02,-8.68e+02,9.28e+03
1540,3.55e+03,7.86e+03,1.28e+03,-3.76e+03,6.50e+02,-9.57e+02,8.94e+03
1541,7.02e+01,5.69e+03,-1.21e+03,1.21e+03,-1.63e+02,-1.41e+03,7.13e+03
1542,1.19e+03,6.93e+03,5.10e+02,-1.26e+03,3.31e+02,-8.68e+02,6.68e+03
1543,3.06e+02,-7.86e+02,-1.68e+03,-9.98e+02,-5.17e+02,-9.47e+02,3.08e+03
1544,8.11e+02,1.52e+00,-2.38e+03,6.61e+02,8.78e+02,-8.55e+02,3.75e+03
1545,-4.28e+02,2.76e+03,-1.43e+03,1.04e+02,3.55e+02,-2.14e+03,5.34e+03
1546,4.01e+02,1.72e+02,1.72e+02,-2.73e+03,6.20e+02,0.00e+00,4.86e+03
1547,2.13e+03,9.14e+02,9.14e+02,-4.66e+03,3.47e+02,0.00e+00,8.19e+03
1548,2.23e+03,3.98e+03,6.48e+02,-4.34e+03,1.15e+03,-6.49e+02,8.38e+03
1549,1.76e+03,4.13e+03,8.63e+02,-3.54e+03,1.93e+02,-4.45e+02,6.85e+03
1550,2.30e+03,3.19e+03,1.35e+03,-3.90e+03,6.90e+02,-6.91e+02,7.15e+03
1551,4.24e+02,3.21e+03,-1.25e+02,-1.29e+03,6.59e+02,-6.49e+02,4.14e+03
1552,9.31e+02,3.77e+03,5.06e+02,-1.69e+03,9.32e+01,-4.45e+02,4.31e+03
1553,6.93e+02,2.65e+03,-1.50e+02,-1.44e+03,1.14e+02,-6.14e+02,3.68e+03
1554,7.18e+02,3.41e+03,-6.87e+02,-1.79e+03,4.61e+02,-6.66e+02,4.96e+03
1555,-1.37e+02,2.85e+03,-5.88e+02,-1.41e+03,4.72e+02,-7.41e+02,4.33e+03
1556,3.64e+02,2.51e+03,-2.91e+02,-2.03e+02,-1.08e+02,-6.14e+02,2.78e+03
1557,-5.59e+02,2.86e+03,-1.23e+03,9.93e+02,3.31e+02,-6.66e+02,4.37e+03
1558,2.10e+02,-1.01e+03,-1.78e+03,7.63e+02,-5.17e+02,-5.62e+02,2.55e+03
1559,4.26e+01,-5.11e+02,-1.31e+03,-1.11e+02,1.70e+02,-2.62e+02,1.31e+03
1560,-1.68e+02,6.57e+02,-1.43e+03,3.05e+02,-1.86e+02,6.87e+01,1.92e+03
1561,4.01e+02,1.72e+02,1.72e+02,-2.73e+03,6.20e+02,0.00e+00,4.86e+03
1562,2.69e+03,1.15e+03,1.15e+03,-2.50e+03,2.18e+02,0.00e+00,4.61e+03
1563,2.33e+03,1.39e+03,2.86e+02,-1.96e+03,6.57e+02,-5.66e+01,4.00e+03
1564,6.15e+02,1.45e+03,-2.85e+02,-2.57e+03,1.93e+02,-3.12e+02,4.73e+03
1565,1.44e+03,7.50e+02,2.21e+02,-2.34e+03,6.91e+02,-7.05e+01,4.36e+03
1566,1.15e+02,4.46e+02,-6.61e+02,-6.75e+02,3.76e+02,-5.66e+01,1.66e+03
1567,-2.18e+02,1.09e+03,-6.42e+02,-7.09e+02,9.32e+01,-3.12e+02,2.07e+03
1568,-8.98e+01,8.26e+02,-9.33e+02,-8.41e+02,1.14e+02,-1.37e+02,2.13e+03
1569,1.15e+02,7.38e+02,-1.06e+03,-6.78e+02,1.61e+02,-2.43e+02,2.04e+03
1570,-2.63e+02,7.18e+02,-9.66e+02,-7.77e+02,1.32e+02,-1.35e+02,2.02e+03
1571,-4.19e+02,6.85e+02,-1.07e+03,3.93e+02,-1.08e+02,-1.37e+02,1.71e+03
1572,-2.34e+02,5.89e+02,-1.21e+03,1.50e+02,7.84e+01,-2.43e+02,1.64e+03
1573,-2.82e+02,-2.29e+02,-1.46e+03,1.75e+02,-1.34e+01,-1.91e+02,1.29e+03
1574,1.41e+02,-2.82e+02,-1.21e+03,4.00e+02,1.70e+02,-1.47e+02,1.44e+03
1575,-2.17e+02,1.98e+02,-1.22e+03,2.87e+02,-1.23e+01,-3.55e+02,1.49e+03
1576,-4.10e+02,-1.76e+02,-1.76e+02,-2.97e+03,-2.19e+02,0.00e+00,5.16e+03
1577,-2.69e+03,-1.15e+03,-1.15e+03,-2.50e+03,2.18e+02,0.00e+00,4.61e+03
1578,-2.46e+03,-1.54e+03,-2.58e+02,-2.12e+03,-2.41e+02,1.12e+02,4.16e+03
1579,-6.09e+02,-1.44e+03,2.99e+02,-2.57e+03,2.15e+02,-1.38e+02,4.71e+03
1580,-1.57e+03,-1.08e+03,-3.21e+02,-2.46e+03,-2.72e+02,1.44e+01,4.43e+03
1581,-8.71e+01,-5.25e+02,7.58e+02,-7.08e+02,-1.38e+02,1.12e+02,1.70e+03
1582,2.24e+02,-1.08e+03,6.56e+02,-7.09e+02,1.15e+02,-1.38e+02,2.02e+03
1583,8.70e+01,-9.48e+02,1.04e+03,-8.99e+02,3.01e+01,8.70e+01,2.33e+03
1584,-7.34e+01,-6.97e+02,1.16e+03,-6.78e+02,5.15e+01,-4.84e+01,2.02e+03
1585,2.58e+02,-6.91e+02,1.03e+03,-7.70e+02,6.40e+01,6.10e+01,2.01e+03
1586,4.40e+02,-7.96e+02,1.20e+03,4.61e+02,1.08e+02,8.70e+01,1.93e+03
1587,2.76e+02,-5.47e+02,1.31e+03,1.50e+02,-3.08e+01,-4.84e+01,1.63e+03
1588,2.67e+02,2.16e+02,1.56e+03,2.08e+02,5.78e+01,-2.95e+01,1.37e+03
1589,-7.86e+01,3.44e+02,1.36e+03,4.00e+02,-1.96e+02,2.93e+01,1.49e+03
1590,3.38e+02,-1.29e+02,1.42e+03,2.88e+02,1.50e+01,-1.77e+02,1.50e+03
1591,-4.10e+02,-1.76e+02,-1.76e+02,-2.97e+03,-2.19e+02,0.00e+00,5.16e+03
1592,-2.13e+03,-9.14e+02,-9.14e+02,-4.66e+03,3.47e+02,0.00e+00,8.19e+03
1593,-2.44e+03,-4.40e+03,-6.03e+02,-4.78e+03,-5.27e+02,-1.54e+02,8.97e+03
1594,-1.76e+03,-4.12e+03,-8.49e+02,-3.54e+03,2.15e+02,-4.62e+00,6.81e+03
1595,-1.97e+03,-2.66e+03,-7.75e+02,-4.02e+03,-1.41e+02,-4.68e+02,7.21e+03
1596,-4.32e+02,-3.54e+03,2.59e+02,-1.37e+03,-3.47e+02,-1.54e+02,4.28e+03
1597,-9.25e+02,-3.76e+03,-4.92e+02,-1.69e+03,1.15e+02,-4.62e+00,4.25e+03
1598,-7.84e+02,-2.98e+03,1.74e+02,-1.53e+03,3.01e+01,-8.07e+01,3.86e+03
1599,-6.98e+02,-3.39e+03,7.32e+02,-1.79e+03,-2.58e+02,-5.94e+01,4.79e+03
1600,-7.93e+00,-3.16e+03,4.97e+02,-1.53e+03,-2.71e+02,-2.21e+02,4.38e+03
1601,-4.30e+02,-2.83e+03,3.26e+02,-1.72e+02,1.08e+02,-8.07e+01,2.88e+03
1602,5.78e+02,-2.84e+03,1.28e+03,9.93e+02,-3.88e+02,-5.94e+01,4.24e+03
1603,-3.62e+02,1.07e+03,1.93e+03,8.88e+02,4.61e+02,-2.08e+02,2.68e+03
1604,1.96e+01,5.73e+02,1.45e+03,-1.11e+02,-1.96e+02,1.44e+02,1.34e+03
1605,1.03e+02,-9.04e+02,1.35e+03,3.89e+02,1.27e+02,5.89e+02,2.32e+03
1606,-1.08e+04,-4.61e+03,-4.61e+03,-7.67e+03,-6.23e+02,0.00e+00,1.47e+04
1607,-2.13e+03,-9.14e+02,-9.14e+02,-4.66e+03,3.47e+02,0.00e+00,8.19e+03
1608,-4.30e+03,-8.73e+03,-2.46e+03,-6.84e+03,-5.27e+02,-3.19e+02,1.31e+04
1609,-9.62e+03,-8.02e+03,-2.71e+03,-8.20e+03,1.08e+03,1.03e+03,1.57e+04
1610,-7.73e+03,-6.55e+03,-3.23e+03,-7.20e+03,8.90e+02,8.50e+02,1.33e+04
1611,-2.29e+03,-7.87e+03,-1.60e+03,-3.43e+03,-3.47e+02,-3.19e+02,8.45e+03
1612,-5.96e+03,-6.45e+03,-1.14e+03,-3.80e+03,7.58e+02,1.03e+03,8.61e+03
1613,-5.64e+03,-8.65e+03,-8.49e+02,-4.50e+03,8.07e+01,-3.19e+02,1.04e+04
1614,-2.44e+03,-7.45e+03,-1.01e+03,-4.04e+03,-2.58e+02,1.42e+02,9.15e+03
1615,-3.06e+03,-7.86e+03,-8.38e+02,-3.74e+03,-2.11e+02,6.37e+01,8.99e+03
1616,-7.09e+01,-6.26e+03,1.54e+03,1.41e+03,3.08e+02,-3.19e+02,7.57e+03
1617,-1.17e+03,-6.91e+03,-4.65e+02,-1.26e+03,-3.88e+02,1.42e+02,6.54e+03
1618,-4.45e+02,8.78e+02,1.85e+03,-1.06e+03,4.61e+02,-3.74e+02,2.90e+03
1619,-6.61e+02,1.48e+02,2.73e+03,6.61e+02,-8.66e+02,-2.84e+02,3.64e+03
1620,1.23e+02,-2.44e+03,1.87e+03,5.92e+01,-4.29e+02,-1.39e+03,4.53e+03
1621,-1.08e+04,-4.61e+03,-4.61e+03,-7.67e+03,-6.23e+02,0.00e+00,1.47e+04
1622,-3.03e+04,-1.30e+04,-1.30e+04,-1.01e+04,1.08e+03,0.00e+00,2.47e+04
1623,-2.73e+04,-9.32e+03,-6.56e+03,-1.20e+04,-9.51e+02,-2.63e+03,2.89e+04
1624,-1.14e+04,-1.22e+04,-4.50e+03,-1.18e+04,1.08e+03,1.27e+03,2.19e+04
1625,-2.10e+04,-1.13e+04,-7.83e+03,-1.12e+04,-2.10e+03,-2.99e+02,2.30e+04
1626,-2.65e+04,-8.98e+03,-6.22e+03,-1.19e+04,-4.29e+02,-2.63e+03,2.85e+04
1627,-7.76e+03,-1.06e+04,-2.94e+03,-7.42e+03,7.58e+02,1.27e+03,1.47e+04
1628,-8.92e+03,-1.63e+04,-4.13e+03,-1.20e+04,8.07e+01,-6.08e+02,2.33e+04
1629,-2.28e+04,-1.15e+04,-4.26e+03,-1.02e+04,1.56e+03,3.85e+03,2.50e+04
1630,-1.88e+04,-1.63e+04,-6.25e+03,-1.07e+04,2.67e+03,1.12e+03,2.24e+04
1631,-3.35e+03,-1.39e+04,-1.74e+03,-6.08e+03,3.08e+02,-6.08e+02,1.56e+04
1632,-1.05e+04,-6.24e+03,1.03e+03,-7.56e+03,1.22e+03,3.85e+03,1.79e+04
1633,-3.48e+03,-3.09e+03,3.30e+03,-3.33e+03,-1.39e+02,-2.66e+03,9.90e+03
1634,-4.87e+03,-9.68e+03,-1.48e+03,-7.91e+03,-8.66e+02,7.96e+01,1.55e+04
1635,-6.37e+03,-1.29e+04,-1.18e+03,-6.39e+03,-2.75e+02,5.16e+02,1.51e+04
1636,-5.74e+04,-2.46e+04,-2.46e+04,-5.57e+03,-1.69e+03,0.00e+00,3.43e+04
1637,-3.03e+04,-1.30e+04,-1.30e+04,-1.01e+04,1.08e+03,0.00e+00,2.47e+04
1638,-2.57e+04,-5.48e+03,-4.91e+03,-1.37e+04,-9.51e+02,-2.94e+03,3.18e+04
1639,-5.67e+04,-7.81e+03,-1.24e+04,-1.31e+04,-1.06e+03,1.57e+03,5.21e+04
1640,-3.93e+04,-1.05e+04,-1.19e+04,-1.11e+04,2.92e+03,-3.04e+03,3.48e+04
1641,-2.49e+04,-5.13e+03,-4.57e+03,-1.37e+04,-4.29e+02,-2.94e+03,3.15e+04
1642,-7.35e+04,-1.50e+04,-1.96e+04,-1.61e+04,-1.56e+03,1.57e+03,6.29e+04
1643,-6.93e+04,-1.34e+04,-1.42e+04,-2.26e+04,-3.92e+03,-2.47e+03,6.84e+04
1644,-2.17e+04,-8.99e+03,-3.17e+03,-2.38e+04,1.56e+03,4.35e+03,4.52e+04
1645,-5.36e+04,-1.12e+04,-1.22e+04,-1.93e+04,-7.00e+03,7.85e+00,5.50e+04
1646,-8.52e+04,-2.02e+04,-2.10e+04,-2.99e+04,-3.51e+03,-2.47e+03,8.31e+04
1647,-9.37e+03,-3.69e+03,2.13e+03,-2.12e+04,1.22e+03,4.35e+03,3.89e+04
1648,-2.00e+04,-4.17e+04,-1.33e+04,-3.21e+04,-1.39e+02,-3.60e+03,6.16e+04
1649,-1.42e+05,-8.25e+04,-5.48e+04,-6.09e+04,-1.16e+04,2.46e+03,1.33e+05
1650,-4.59e+04,-2.70e+04,-1.33e+04,-3.28e+04,8.04e+03,6.34e+03,6.59e+04
1651,-5.74e+04,-2.46e+04,-2.46e+04,-5.57e+03,-1.69e+03,0.00e+00,3.43e+04
1652,-4.95e+04,-2.12e+04,-2.12e+04,3.69e+03,1.33e+03,0.00e+00,2.91e+04
1653,-4.52e+04,-3.97e+02,-8.20e+03,1.65e+03,6.66e+02,2.12e+03,4.17e+04
1654,-5.44e+04,-2.42e+03,-1.01e+04,3.14e+02,-1.06e+03,1.06e+03,4.87e+04
1655,-4.58e+04,-7.52e+03,-1.27e+04,-5.13e+00,7.55e+02,5.12e+03,3.70e+04
1656,-5.68e+04,-5.38e+03,-1.32e+04,-1.62e+03,1.00e+03,2.12e+03,4.83e+04
1657,-7.12e+04,-9.60e+03,-1.73e+04,-2.63e+03,-1.56e+03,1.06e+03,5.84e+04
1658,-6.46e+04,-2.28e+03,-9.42e+03,-4.62e+02,-3.92e+03,-1.39e+03,5.95e+04
1659,-5.42e+04,-3.86e+02,-8.06e+03,1.66e+03,2.17e+03,-2.90e+03,5.09e+04
1660,-6.87e+04,-2.39e+03,-1.31e+04,-5.28e+02,-1.84e+03,-1.45e+03,6.18e+04
1661,-8.04e+04,-9.07e+03,-1.62e+04,-7.81e+03,-3.51e+03,-1.39e+03,6.97e+04
1662,-6.14e+04,-3.44e+03,-1.11e+04,-3.47e+03,1.74e+03,-2.90e+03,5.51e+04
1663,-8.74e+04,-1.17e+04,-1.97e+04,-9.24e+03,7.70e+03,-3.08e+03,7.52e+04
1664,-1.23e+05,-3.71e+04,-3.53e+04,1.44e+04,-1.16e+04,-2.33e+02,9.24e+04
1665,-6.07e+04,-2.48e+03,-9.13e+03,-3.47e+03,1.12e+03,-2.26e+03,5.57e+04
1666,-1.89e+04,-8.08e+03,-8.08e+03,9.05e+03,-4.91e+02,0.00e+00,1.90e+04
1667,-4.95e+04,-2.12e+04,-2.12e+04,3.69e+03,1.33e+03,0.00e+00,2.91e+04
1668,-4.49e+04,2.13e+02,-7.94e+03,1.08e+04,6.66e+02,2.30e+03,4.59e+04
1669,-1.72e+04,-1.30e+03,-3.57e+03,1.27e+04,-1.41e+02,-3.32e+03,2.72e+04
1670,-2.97e+04,-5.69e+03,-8.64e+03,1.00e+04,-3.23e+03,-2.99e+03,2.96e+04
1671,-5.65e+04,-4.77e+03,-1.29e+04,7.54e+03,1.00e+03,2.30e+03,5.01e+04
1672,-2.09e+04,-2.89e+03,-5.16e+03,6.81e+03,-3.67e+02,-3.32e+03,2.15e+04
1673,-2.02e+04,-1.17e+03,-3.33e+03,1.32e+04,-7.70e+02,3.83e+03,2.99e+04
1674,-5.38e+04,6.09e+02,-7.63e+03,1.09e+04,2.17e+03,-3.26e+03,5.46e+04
1675,-4.21e+04,-2.87e+03,-8.61e+03,9.85e+03,4.76e+03,6.41e+02,4.13e+04
1676,-2.16e+04,-1.80e+03,-3.96e+03,6.76e+03,-7.37e+02,3.83e+03,2.32e+04
1677,-6.09e+04,-2.44e+03,-1.07e+04,5.81e+03,1.74e+03,-3.26e+03,5.61e+04
1678,-9.84e+04,-3.73e+04,-3.07e+04,2.74e+04,7.70e+03,-1.52e+03,8.14e+04
1679,-2.68e+04,2.71e+03,-3.68e+03,1.23e+04,-2.63e+03,9.77e+00,3.46e+04
1680,-3.73e+04,-1.77e+03,-5.70e+03,9.19e+03,-4.23e+03,6.79e+02,3.80e+04
1681,-1.89e+04,-8.08e+03,-8.08e+03,9.05e+03,-4.91e+02,0.00e+00,1.90e+04
1682,1.89e+04,8.08e+03,8.08e+03,9.05e+03,-4.91e+02,0.00e+00,1.90e+04
1683,1.62e+04,-1.03e+03,2.57e+03,1.55e+04,-1.41e+02,3.33e+03,3.17e+04
1684,-1.62e+04,1.03e+03,-2.57e+03,1.55e+04,-1.41e+02,-3.33e+03,3.17e+04
1685,-1.93e-03,5.57e-03,-5.00e-03,1.35e+04,4.00e+03,6.00e-04,2.45e+04
1686,1.99e+04,5.52e+02,4.16e+03,9.62e+03,-3.67e+02,3.33e+03,2.51e+04
1687,-1.99e+04,-5.52e+02,-4.16e+03,9.62e+03,-3.67e+02,-3.33e+03,2.51e+04
1688,-1.94e+04,6.14e+02,-2.57e+03,1.52e+04,-7.70e+02,3.95e+03,3.30e+04
1689,1.94e+04,-6.14e+02,2.57e+03,1.52e+04,-7.70e+02,-3.95e+03,3.30e+04
1690,-4.81e-03,1.50e-02,-1.42e-02,1.25e+04,-5.39e+03,-1.45e-04,2.35e+04
1691,-2.09e+04,-1.19e+01,-3.19e+03,8.73e+03,-7.37e+02,3.95e+03,2.56e+04
1692,2.09e+04,1.19e+01,3.19e+03,8.73e+03,-7.37e+02,-3.95e+03,2.56e+04
1693,3.52e+04,1.69e+04,1.21e+04,2.15e+04,-2.63e+03,3.21e+02,4.31e+04
1694,-3.52e+04,-1.69e+04,-1.21e+04,2.15e+04,-2.63e+03,-3.21e+02,4.31e+04
1695,-4.18e-03,2.28e-02,-1.97e-02,1.18e+04,4.23e+03,2.93e-04,2.17e+04
1696,4.95e+04,2.12e+04,2.12e+04,3.69e+03,1.33e+03,0.00e+00,2.91e+04
1697,1.89e+04,8.08e+03,8.08e+03,9.05e+03,-4.91e+02,0.00e+00,1.90e+04
1698,1.72e+04,1.30e+03,3.57e+03,1.27e+04,-1.41e+02,3.32e+03,2.72e+04
1699,4.49e+04,-2.13e+02,7.94e+03,1.08e+04,6.66e+02,-2.30e+03,4.59e+04
1700,2.97e+04,5.69e+03,8.64e+03,1.00e+04,-3.23e+03,2.99e+03,2.96e+04
1701,2.09e+04,2.89e+03,5.16e+03,6.81e+03,-3.67e+02,3.32e+03,2.15e+04
1702,5.65e+04,4.77e+03,1.29e+04,7.54e+03,1.00e+03,-2.30e+03,5.01e+04
1703,5.38e+04,-6.09e+02,7.63e+03,1.09e+04,2.17e+03,3.26e+03,5.46e+04
1704,2.02e+04,1.17e+03,3.33e+03,1.32e+04,-7.70e+02,-3.83e+03,2.99e+04
1705,4.21e+04,2.87e+03,8.61e+03,9.85e+03,4.76e+03,-6.41e+02,4.13e+04
1706,6.09e+04,2.44e+03,1.07e+04,5.81e+03,1.74e+03,3.26e+03,5.61e+04
1707,2.16e+04,1.80e+03,3.96e+03,6.76e+03,-7.37e+02,-3.83e+03,2.32e+04
1708,2.68e+04,-2.71e+03,3.68e+03,1.23e+04,-2.63e+03,-9.77e+00,3.46e+04
1709,9.84e+04,3.73e+04,3.07e+04,2.74e+04,7.70e+03,1.52e+03,8.14e+04
1710,3.73e+04,1.77e+03,5.70e+03,9.19e+03,-4.23e+03,-6.79e+02,3.80e+04
1711,4.95e+04,2.12e+04,2.12e+04,3.69e+03,1.33e+03,0.00e+00,2.91e+04
1712,5.74e+04,2.46e+04,2.46e+04,-5.57e+03,-1.69e+03,0.00e+00,3.43e+04
1713,5.44e+04,2.42e+03,1.01e+04,3.14e+02,-1.06e+03,-1.06e+03,4.87e+04
1714,4.52e+04,3.97e+02,8.20e+03,1.65e+03,6.66e+02,-2.12e+03,4.17e+04
1715,4.58e+04,7.52e+03,1.27e+04,-5.11e+00,7.55e+02,-5.12e+03,3.70e+04
1716,7.12e+04,9.60e+03,1.73e+04,-2.63e+03,-1.56e+03,-1.06e+03,5.84e+04
1717,5.68e+04,5.38e+03,1.32e+04,-1.62e+03,1.00e+03,-2.12e+03,4.83e+04
1718,5.42e+04,3.86e+02,8.06e+03,1.66e+03,2.17e+03,2.90e+03,5.09e+04
1719,6.46e+04,2.28e+03,9.42e+03,-4.62e+02,-3.92e+03,1.39e+03,5.95e+04
1720,6.87e+04,2.39e+03,1.31e+04,-5.28e+02,-1.84e+03,1.45e+03,6.18e+04
1721,6.14e+04,3.44e+03,1.11e+04,-3.47e+03,1.74e+03,2.90e+03,5.51e+04
1722,8.04e+04,9.07e+03,1.62e+04,-7.81e+03,-3.51e+03,1.39e+03,6.97e+04
1723,1.23e+05,3.71e+04,3.53e+04,1.44e+04,-1.16e+04,2.33e+02,9.24e+04
1724,8.74e+04,1.17e+04,1.97e+04,-9.24e+03,7.70e+03,3.08e+03,7.52e+04
1725,6.07e+04,2.48e+03,9.13e+03,-3.47e+03,1.12e+03,2.26e+03,5.57e+04
1726,3.03e+04,1.30e+04,1.30e+04,-1.01e+04,1.08e+03,0.00e+00,2.47e+04
1727,5.74e+04,2.46e+04,2.46e+04,-5.57e+03,-1.69e+03,0.00e+00,3.43e+04
1728,5.67e+04,7.81e+03,1.24e+04,-1.31e+04,-1.06e+03,-1.57e+03,5.21e+04
1729,2.57e+04,5.48e+03,4.91e+03,-1.37e+04,-9.51e+02,2.94e+03,3.18e+04
1730,3.93e+04,1.05e+04,1.19e+04,-1.11e+04,2.92e+03,3.04e+03,3.48e+04
1731,7.35e+04,1.50e+04,1.96e+04,-1.61e+04,-1.56e+03,-1.57e+03,6.29e+04
1732,2.49e+04,5.13e+03,4.57e+03,-1.37e+04,-4.29e+02,2.94e+03,3.15e+04
1733,2.17e+04,8.99e+03,3.17e+03,-2.38e+04,1.56e+03,-4.35e+03,4.52e+04
1734,6.93e+04,1.34e+04,1.42e+04,-2.26e+04,-3.92e+03,2.47e+03,6.84e+04
1735,5.36e+04,1.12e+04,1.22e+04,-1.93e+04,-7.00e+03,-7.85e+00,5.50e+04
1736,9.37e+03,3.69e+03,-2.13e+03,-2.12e+04,1.22e+03,-4.35e+03,3.89e+04
1737,8.52e+04,2.02e+04,2.10e+04,-2.99e+04,-3.51e+03,2.47e+03,8.31e+04
1738,1.42e+05,8.25e+04,5.48e+04,-6.09e+04,-1.16e+04,-2.46e+03,1.33e+05
1739,2.00e+04,4.17e+04,1.33e+04,-3.21e+04,-1.39e+02,3.60e+03,6.16e+04
1740,4.59e+04,2.70e+04,1.33e+04,-3.28e+04,8.04e+03,-6.34e+03,6.59e+04
1741,3.03e+04,1.30e+04,1.30e+04,-1.01e+04,1.08e+03,0.00e+00,2.47e+04
1742,1.08e+04,4.61e+03,4.61e+03,-7.67e+03,-6.23e+02,0.00e+00,1.47e+04
1743,1.14e+04,1.22e+04,4.50e+03,-1.18e+04,1.08e+03,-1.27e+03,2.19e+04
1744,2.73e+04,9.32e+03,6.56e+03,-1.20e+04,-9.51e+02,2.63e+03,2.89e+04
1745,2.10e+04,1.13e+04,7.83e+03,-1.12e+04,-2.10e+03,2.99e+02,2.30e+04
1746,7.76e+03,1.06e+04,2.94e+03,-7.42e+03,7.58e+02,-1.27e+03,1.47e+04
1747,2.65e+04,8.98e+03,6.22e+03,-1.19e+04,-4.29e+02,2.63e+03,2.85e+04
1748,2.28e+04,1.15e+04,4.26e+03,-1.02e+04,1.56e+03,-3.85e+03,2.50e+04
1749,8.92e+03,1.63e+04,4.13e+03,-1.20e+04,8.07e+01,6.08e+02,2.33e+04
1750,1.88e+04,1.63e+04,6.25e+03,-1.07e+04,2.67e+03,-1.12e+03,2.24e+04
1751,1.05e+04,6.24e+03,-1.03e+03,-7.56e+03,1.22e+03,-3.85e+03,1.79e+04
1752,3.35e+03,1.39e+04,1.74e+03,-6.08e+03,3.08e+02,6.08e+02,1.56e+04
1753,4.87e+03,9.68e+03,1.48e+03,-7.91e+03,-8.66e+02,-7.96e+01,1.55e+04
1754,3.48e+03,3.09e+03,-3.30e+03,-3.33e+03,-1.39e+02,2.66e+03,9.90e+03
1755,6.37e+03,1.29e+04,1.18e+03,-6.39e+03,-2.75e+02,-5.16e+02,1.51e+04
1756,2.13e+03,9.14e+02,9.14e+02,-4.66e+03,3.47e+02,0.00e+00,8.19e+03
1757,1.08e+04,4.61e+03,4.61e+03,-7.67e+03,-6.23e+02,0.00e+00,1.47e+04
1758,9.62e+03,8.02e+03,2.71e+03,-8.20e+03,1.08e+03,-1.03e+03,1.57e+04
1759,4.30e+03,8.73e+03,2.46e+03,-6.84e+03,-5.27e+02,3.19e+02,1.31e+04
1760,7.73e+03,6.55e+03,3.23e+03,-7.20e+03,8.90e+02,-8.50e+02,1.33e+04
1761,5.96e+03,6.45e+03,1.14e+03,-3.80e+03,7.58e+02,-1.03e+03,8.61e+03
1762,2.29e+03,7.87e+03,1.60e+03,-3.43e+03,-3.47e+02,3.19e+02,8.45e+03
1763,2.44e+03,7.45e+03,1.01e+03,-4.04e+03,-2.58e+02,-1.42e+02,9.15e+03
1764,5.64e+03,8.65e+03,8.49e+02,-4.50e+03,8.07e+01,3.19e+02,1.04e+04
1765,3.06e+03,7.86e+03,8.38e+02,-3.74e+03,-2.11e+02,-6.37e+01,8.99e+03
1766,1.17e+03,6.91e+03,4.65e+02,-1.26e+03,-3.88e+02,-1.42e+02,6.54e+03
1767,7.09e+01,6.26e+03,-1.54e+03,1.41e+03,3.08e+02,3.19e+02,7.57e+03
1768,6.61e+02,-1.48e+02,-2.73e+03,6.61e+02,-8.66e+02,2.84e+02,3.64e+03
1769,4.45e+02,-8.78e+02,-1.85e+03,-1.06e+03,4.61e+02,3.74e+02,2.90e+03
1770,-1.23e+02,2.44e+03,-1.87e+03,5.92e+01,-4.29e+02,1.39e+03,4.53e+03
1771,2.13e+03,9.14e+02,9.14e+02,-4.66e+03,3.47e+02,0.00e+00,8.19e+03
1772,4.10e+02,1.76e+02,1.76e+02,-2.97e+03,-2.19e+02,0.00e+00,5.16e+03
1773,1.76e+03,4.12e+03,8.49e+02,-3.54e+03,2.15e+02,4.62e+00,6.81e+03
1774,2.44e+03,4.40e+03,6.03e+02,-4.78e+03,-5.27e+02,1.54e+02,8.97e+03
1775,1.97e+03,2.66e+03,7.75e+02,-4.02e+03,-1.41e+02,4.68e+02,7.21e+03
1776,9.25e+02,3.76e+03,4.92e+02,-1.69e+03,1.15e+02,4.62e+00,4.25e+03
1777,4.32e+02,3.54e+03,-2.59e+02,-1.37e+03,-3.47e+02,1.54e+02,4.28e+03
1778,6.98e+02,3.39e+03,-7.32e+02,-1.79e+03,-2.58e+02,5.94e+01,4.79e+03
1779,7.84e+02,2.98e+03,-1.74e+02,-1.53e+03,3.01e+01,8.07e+01,3.86e+03
1780,7.93e+00,3.16e+03,-4.97e+02,-1.53e+03,-2.71e+02,2.21e+02,4.38e+03
1781,-5.78e+02,2.84e+03,-1.28e+03,9.93e+02,-3.88e+02,5.94e+01,4.24e+03
1782,4.30e+02,2.83e+03,-3.26e+02,-1.72e+02,1.08e+02,8.07e+01,2.88e+03
1783,-1.96e+01,-5.73e+02,-1.45e+03,-1.11e+02,-1.96e+02,-1.44e+02,1.34e+03
1784,3.62e+02,-1.07e+03,-1.93e+03,8.88e+02,4.61e+02,2.08e+02,2.68e+03
1785,-1.03e+02,9.04e+02,-1.35e+03,3.89e+02,1.27e+02,-5.89e+02,2.32e+03
1786,2.69e+03,1.15e+03,1.15e+03,-2.50e+03,2.18e+02,0.00e+00,4.61e+03
1787,4.10e+02,1.76e+02,1.76e+02,-2.97e+03,-2.19e+02,0.00e+00,5.16e+03
1788,6.09e+02,1.44e+03,-2.99e+02,-2.57e+03,2.15e+02,1.38e+02,4.71e+03
1789,2.46e+03,1.54e+03,2.58e+02,-2.12e+03,-2.41e+02,-1.12e+02,4.16e+03
1790,1.57e+03,1.08e+03,3.21e+02,-2.46e+03,-2.72e+02,-1.44e+01,4.43e+03
1791,-2.24e+02,1.08e+03,-6.56e+02,-7.09e+02,1.15e+02,1.38e+02,2.02e+03
1792,8.71e+01,5.25e+02,-7.58e+02,-7.08e+02,-1.38e+02,-1.12e+02,1.70e+03
1793,7.34e+01,6.97e+02,-1.16e+03,-6.78e+02,5.15e+01,4.84e+01,2.02e+03
1794,-8.70e+01,9.48e+02,-1.04e+03,-8.99e+02,3.01e+01,-8.70e+01,2.33e+03
1795,-2.58e+02,6.91e+02,-1.03e+03,-7.70e+02,6.40e+01,-6.10e+01,2.01e+03
1796,-2.76e+02,5.47e+02,-1.31e+03,1.50e+02,-3.08e+01,4.84e+01,1.63e+03
1797,-4.40e+02,7.96e+02,-1.20e+03,4.61e+02,1.08e+02,-8.70e+01,1.93e+03
1798,7.86e+01,-3.44e+02,-1.36e+03,4.00e+02,-1.96e+02,-2.93e+01,1.49e+03
1799,-2.67e+02,-2.16e+02,-1.56e+03,2.08e+02,5.78e+01,2.95e+01,1.37e+03
1800,-3.38e+02,1.29e+02,-1.42e+03,2.88e+02,1.50e+01,1.77e+02,1.50e+03
1801,-2.69e+03,-1.15e+03,-1.15e+03,-2.50e+03,2.18e+02,0.00e+00,4.61e+03
1802,-4.01e+02,-1.72e+02,-1.72e+02,-2.73e+03,6.20e+02,0.00e+00,4.86e+03
1803,-6.15e+02,-1.45e+03,2.85e+02,-2.57e+03,1.93e+02,3.12e+02,4.73e+03
1804,-2.33e+03,-1.39e+03,-2.86e+02,-1.96e+03,6.57e+02,5.66e+01,4.00e+03
1805,-1.44e+03,-7.50e+02,-2.21e+02,-2.34e+03,6.91e+02,7.05e+01,4.36e+03
1806,2.18e+02,-1.09e+03,6.42e+02,-7.09e+02,9.32e+01,3.12e+02,2.07e+03
1807,-1.15e+02,-4.46e+02,6.61e+02,-6.75e+02,3.76e+02,5.66e+01,1.66e+03
1808,-1.15e+02,-7.38e+02,1.06e+03,-6.78e+02,1.61e+02,2.43e+02,2.04e+03
1809,8.98e+01,-8.26e+02,9.33e+02,-8.41e+02,1.14e+02,1.37e+02,2.13e+03
1810,2.63e+02,-7.18e+02,9.66e+02,-7.77e+02,1.32e+02,1.35e+02,2.02e+03
1811,2.34e+02,-5.89e+02,1.21e+03,1.50e+02,7.84e+01,2.43e+02,1.64e+03
1812,4.19e+02,-6.85e+02,1.07e+03,3.93e+02,-1.08e+02,1.37e+02,1.71e+03
1813,-1.41e+02,2.82e+02,1.21e+03,4.00e+02,1.70e+02,1.47e+02,1.44e+03
1814,2.82e+02,2.29e+02,1.46e+03,1.75e+02,-1.34e+01,1.91e+02,1.29e+03
1815,2.17e+02,-1.98e+02,1.22e+03,2.87e+02,-1.23e+01,3.55e+02,1.49e+03
1816,-2.13e+03,-9.14e+02,-9.14e+02,-4.66e+03,3.47e+02,0.00e+00,8.19e+03
1817,-4.01e+02,-1.72e+02,-1.72e+02,-2.73e+03,6.20e+02,0.00e+00,4.86e+03
1818,-1.76e+03,-4.13e+03,-8.63e+02,-3.54e+03,1.93e+02,4.45e+02,6.85e+03
1819,-2.23e+03,-3.98e+03,-6.48e+02,-4.34e+03,1.15e+03,6.49e+02,8.38e+03
1820,-2.30e+03,-3.19e+03,-1.35e+03,-3.90e+03,6.90e+02,6.91e+02,7.15e+03
1821,-9.31e+02,-3.77e+03,-5.06e+02,-1.69e+03,9.32e+01,4.45e+02,4.31e+03
1822,-4.24e+02,-3.21e+03,1.25e+02,-1.29e+03,6.59e+02,6.49e+02,4.14e+03
1823,-7.18e+02,-3.41e+03,6.87e+02,-1.79e+03,4.61e+02,6.66e+02,4.96e+03
1824,-6.93e+02,-2.65e+03,1.50e+02,-1.44e+03,1.14e+02,6.14e+02,3.68e+03
1825,1.37e+02,-2.85e+03,5.88e+02,-1.41e+03,4.72e+02,7.41e+02,4.33e+03
1826,5.59e+02,-2.86e+03,1.23e+03,9.93e+02,3.31e+02,6.66e+02,4.37e+03
1827,-3.64e+02,-2.51e+03,2.91e+02,-2.03e+02,-1.08e+02,6.14e+02,2.78e+03
1828,-4.26e+01,5.11e+02,1.31e+03,-1.11e+02,1.70e+02,2.62e+02,1.31e+03
1829,-2.10e+02,1.01e+03,1.78e+03,7.63e+02,-5.17e+02,5.62e+02,2.55e+03
1830,1.68e+02,-6.57e+02,1.43e+03,3.05e+02,-1.86e+02,-6.87e+01,1.92e+03
1831,-2.13e+03,-9.14e+02,-9.14e+02,-4.66e+03,3.47e+02,0.00e+00,8.19e+03
1832,-9.71e+03,-4.16e+03,-4.16e+03,-6.95e+03,1.82e+03,0.00e+00,1.36e+04
1833,-9.55e+03,-7.96e+03,-2.55e+03,-8.20e+03,3.10e+02,-5.65e+01,1.56e+04
1834,-3.90e+03,-7.88e+03,-2.32e+03,-6.21e+03,1.15e+03,1.17e+03,1.22e+04
1835,-6.43e+03,-4.95e+03,-1.82e+03,-6.71e+03,1.80e+02,-3.41e+02,1.23e+04
1836,-5.89e+03,-6.39e+03,-9.85e+02,-3.80e+03,-1.41e+01,-5.65e+01,8.37e+03
1837,-2.10e+03,-7.11e+03,-1.55e+03,-3.16e+03,6.59e+02,1.17e+03,7.97e+03
1838,-2.46e+03,-7.47e+03,-1.06e+03,-4.04e+03,4.61e+02,8.68e+02,9.28e+03
1839,-4.99e+03,-7.80e+03,-8.94e+02,-4.09e+03,5.14e+02,1.41e+03,9.64e+03
1840,-3.55e+03,-7.86e+03,-1.28e+03,-3.76e+03,6.50e+02,9.57e+02,8.94e+03
1841,-1.19e+03,-6.93e+03,-5.10e+02,-1.26e+03,3.31e+02,8.68e+02,6.68e+03
1842,-7.02e+01,-5.69e+03,1.21e+03,1.21e+03,-1.63e+02,1.41e+03,7.13e+03
1843,-8.11e+02,-1.53e+00,2.38e+03,6.61e+02,8.78e+02,8.55e+02,3.75e+03
1844,-3.06e+02,7.86e+02,1.68e+03,-9.98e+02,-5.17e+02,9.47e+02,3.08e+03
1845,4.28e+02,-2.76e+03,1.43e+03,1.04e+02,3.55e+02,2.14e+03,5.34e+03
1846,-3.03e+04,-1.30e+04,-1.30e+04,-1.01e+04,1.08e+03,0.00e+00,2.47e+04
1847,-9.71e+03,-4.16e+03,-4.16e+03,-6.95e+03,1.82e+03,0.00e+00,1.36e+04
1848,-1.14e+04,-1.22e+04,-4.35e+03,-1.18e+04,3.10e+02,1.80e+02,2.18e+04
1849,-2.46e+04,-8.35e+03,-6.25e+03,-1.07e+04,3.49e+03,3.75e+03,2.69e+04
1850,-2.15e+04,-1.27e+04,-9.46e+03,-1.10e+04,3.90e+03,1.00e+03,2.29e+04
1851,-7.69e+03,-1.06e+04,-2.78e+03,-7.42e+03,-1.41e+01,1.80e+02,1.46e+04
1852,-2.43e+04,-8.24e+03,-6.13e+03,-1.09e+04,2.09e+03,3.75e+03,2.67e+04
1853,-2.29e+04,-1.16e+04,-4.35e+03,-1.02e+04,3.92e+02,-1.85e+03,2.41e+04
1854,-8.00e+03,-1.48e+04,-3.90e+03,-1.10e+04,5.14e+02,2.33e+03,2.16e+04
1855,-1.60e+04,-1.43e+04,-4.73e+03,-9.86e+03,-1.36e+03,5.71e+02,2.02e+04
1856,-1.05e+04,-6.28e+03,9.42e+02,-7.56e+03,5.12e+01,-1.85e+03,1.68e+04
1857,-3.08e+03,-1.27e+04,-1.79e+03,-5.65e+03,-1.63e+02,2.33e+03,1.48e+04
1858,-5.02e+03,-9.83e+03,-1.83e+03,-7.91e+03,8.78e+02,1.22e+03,1.56e+04
1859,-3.03e+03,-2.70e+03,1.88e+03,-2.85e+03,9.15e+02,3.68e+03,9.49e+03
1860,-8.07e+03,-1.25e+04,-1.99e+03,-6.43e+03,8.74e+02,1.17e+03,1.46e+04
1861,-3.03e+04,-1.30e+04,-1.30e+04,-1.01e+04,1.08e+03,0.00e+00,2.47e+04
1862,-5.10e+04,-2.19e+04,-2.19e+04,-4.91e+03,5.09e+03,0.00e+00,3.16e+04
1863,-5.62e+04,-7.33e+03,-1.13e+04,-1.31e+04,5.60e+03,-2.92e+02,5.31e+04
1864,-2.31e+04,-4.84e+03,-4.74e+03,-1.22e+04,3.49e+03,4.91e+03,2.98e+04
1865,-3.49e+04,-7.35e+03,-8.33e+03,-9.96e+03,6.19e+02,3.83e+03,3.28e+04
1866,-7.30e+04,-1.45e+04,-1.85e+04,-1.61e+04,5.10e+03,-2.92e+02,6.37e+04
1867,-2.28e+04,-4.73e+03,-4.62e+03,-1.24e+04,2.09e+03,4.91e+03,2.96e+04
1868,-2.18e+04,-9.03e+03,-3.26e+03,-2.38e+04,3.92e+02,-1.35e+03,4.45e+04
1869,-6.38e+04,-1.19e+04,-1.35e+04,-2.04e+04,7.98e+03,4.80e+03,6.41e+04
1870,-5.50e+04,-1.29e+04,-1.43e+04,-1.90e+04,9.55e+03,2.30e+03,5.55e+04
1871,-9.41e+03,-3.73e+03,2.03e+03,-2.12e+04,5.12e+01,-1.35e+03,3.81e+04
1872,-8.06e+04,-1.92e+04,-2.08e+04,-2.75e+04,8.38e+03,4.80e+03,7.89e+04
1873,-1.43e+05,-8.28e+04,-5.54e+04,-6.09e+04,1.74e+04,2.20e+03,1.34e+05
1874,-1.83e+04,-3.84e+04,-1.34e+04,-3.01e+04,9.15e+02,7.61e+03,5.84e+04
1875,-3.84e+04,-2.27e+04,-8.46e+03,-3.10e+04,-4.62e+03,-2.58e+03,6.03e+04
1876,-4.95e+04,-2.12e+04,-2.12e+04,3.69e+03,1.33e+03,0.00e+00,2.91e+04
1877,-5.10e+04,-2.19e+04,-2.19e+04,-4.91e+03,5.09e+03,0.00e+00,3.16e+04
1878,-5.39e+04,-1.95e+03,-9.00e+03,3.14e+02,5.60e+03,-8.00e+02,4.98e+04
1879,-4.09e+04,-2.20e+02,-7.81e+03,1.55e+03,2.88e+03,-3.02e+03,3.82e+04
1880,-4.25e+04,-6.66e+03,-1.07e+04,-4.32e+02,3.04e+03,-5.15e+03,3.56e+04
1881,-7.07e+04,-9.13e+03,-1.62e+04,-2.63e+03,5.10e+03,-8.00e+02,5.92e+04
1882,-5.23e+04,-5.12e+03,-1.27e+04,-1.23e+03,1.97e+03,-3.02e+03,4.44e+04
1883,-5.39e+04,-1.37e+01,-7.19e+03,1.66e+03,1.43e+03,2.26e+03,5.09e+04
1884,-5.93e+04,-1.55e+03,-9.09e+03,-4.03e+02,7.98e+03,1.92e+03,5.62e+04
1885,-6.65e+04,-1.56e+03,-1.27e+04,7.13e+01,5.37e+03,1.23e+03,6.09e+04
1886,-6.10e+04,-3.06e+03,-1.02e+04,-3.47e+03,1.01e+03,2.26e+03,5.52e+04
1887,-7.62e+04,-8.77e+03,-1.63e+04,-7.48e+03,8.38e+03,1.92e+03,6.69e+04
1888,-1.23e+05,-3.74e+04,-3.60e+04,1.44e+04,1.74e+04,-4.96e+02,9.49e+04
1889,-8.61e+04,-9.65e+03,-1.94e+04,-8.88e+03,-5.38e+03,2.88e+03,7.45e+04
1890,-5.69e+04,-1.77e+03,-6.33e+03,-3.76e+03,2.87e+03,1.79e+03,5.37e+04
1891,-4.95e+04,-2.12e+04,-2.12e+04,3.69e+03,1.33e+03,0.00e+00,2.91e+04
1892,-1.68e+04,-7.20e+03,-7.20e+03,8.58e+03,1.45e+03,0.00e+00,1.79e+04
1893,-1.71e+04,-1.18e+03,-3.29e+03,1.27e+04,1.49e+03,1.42e+03,2.69e+04
1894,-4.06e+04,3.68e+02,-7.56e+03,1.01e+04,2.88e+03,-3.27e+03,4.22e+04
1895,-3.00e+04,-7.01e+03,-1.10e+04,1.00e+04,5.29e+03,2.08e+03,2.92e+04
1896,-2.08e+04,-2.76e+03,-4.87e+03,6.81e+03,1.26e+03,1.42e+03,2.10e+04
1897,-5.21e+04,-4.53e+03,-1.25e+04,7.29e+03,1.97e+03,-3.27e+03,4.64e+04
1898,-5.34e+04,9.81e+02,-6.77e+03,1.09e+04,1.43e+03,1.90e+03,5.45e+04
1899,-1.86e+04,-7.93e+02,-3.07e+03,1.25e+04,1.85e+03,-5.62e+03,2.93e+04
1900,-3.77e+04,-2.02e+03,-6.04e+03,9.33e+03,-2.41e+03,-2.35e+03,3.79e+04
1901,-6.06e+04,-2.07e+03,-9.82e+03,5.81e+03,1.01e+03,1.90e+03,5.61e+04
1902,-2.09e+04,-1.76e+03,-4.05e+03,6.99e+03,1.74e+03,-5.62e+03,2.40e+04
1903,-2.68e+04,2.74e+03,-3.62e+03,1.23e+04,3.71e+03,1.02e+02,3.49e+04
1904,-9.80e+04,-3.73e+04,-3.13e+04,2.76e+04,-5.38e+03,1.91e+03,8.04e+04
1905,-3.92e+04,-2.46e+02,-5.63e+03,9.39e+03,6.00e+03,-1.42e+03,4.14e+04
1906,1.89e+04,8.08e+03,8.08e+03,9.05e+03,-4.91e+02,0.00e+00,1.90e+04
1907,-1.68e+04,-7.20e+03,-7.20e+03,8.58e+03,1.45e+03,0.00e+00,1.79e+04
1908,-1.61e+04,1.16e+03,-2.28e+03,1.55e+04,1.49e+03,1.41e+03,3.14e+04
1909,1.51e+04,-8.48e+02,2.54e+03,1.44e+04,-1.10e+03,-5.05e+03,3.03e+04
1910,2.53e+03,2.34e+03,3.56e+03,1.31e+04,-3.77e+03,-1.01e+03,2.36e+04
1911,-1.98e+04,-4.29e+02,-3.87e+03,9.62e+03,1.26e+03,1.41e+03,2.47e+04
1912,1.89e+04,7.49e+02,4.14e+03,9.50e+03,-7.67e+02,-5.05e+03,2.50e+04
1913,1.93e+04,-6.85e+02,2.40e+03,1.52e+04,-5.55e+02,2.01e+03,3.25e+04
1914,-1.79e+04,8.89e+02,-2.35e+03,1.46e+04,1.85e+03,-5.73e+03,3.24e+04
1915,-2.55e+03,-2.69e+02,-1.88e+03,1.24e+04,5.09e+03,-2.00e+03,2.35e+04
1916,2.08e+04,-5.92e+01,3.03e+03,8.73e+03,-5.22e+02,2.01e+03,2.49e+04
1917,-2.02e+04,-8.22e+01,-3.33e+03,9.06e+03,1.74e+03,-5.73e+03,2.65e+04
1918,-3.52e+04,-1.69e+04,-1.20e+04,2.15e+04,3.71e+03,-2.29e+02,4.33e+04
1919,3.52e+04,1.73e+04,1.25e+04,2.18e+04,1.51e+03,-6.89e+02,4.31e+04
1920,2.93e+03,-1.11e+03,9.73e+02,1.19e+04,-4.28e+03,-1.28e+03,2.23e+04
1921,1.89e+04,8.08e+03,8.08e+03,9.05e+03,-4.91e+02,0.00e+00,1.90e+04
1922,4.50e+04,1.93e+04,1.93e+04,3.56e+03,-3.92e+03,0.00e+00,2.73e+04
1923,4.47e+04,-4.60e+02,7.36e+03,1.08e+04,-4.13e+03,1.01e+03,4.64e+04
1924,1.60e+04,1.07e+03,3.37e+03,1.18e+04,-1.10e+03,-4.95e+03,2.62e+04
1925,2.64e+04,3.53e+03,5.25e+03,9.42e+03,9.11e+02,-3.72e+03,2.82e+04
1926,5.63e+04,4.52e+03,1.23e+04,7.54e+03,-3.79e+03,1.01e+03,5.05e+04
1927,1.97e+04,2.67e+03,4.96e+03,6.85e+03,-7.67e+02,-4.95e+03,2.17e+04
1928,2.01e+04,1.10e+03,3.17e+03,1.32e+04,-5.55e+02,2.14e+03,2.94e+04
1929,5.04e+04,-9.74e+02,7.32e+03,1.06e+04,-5.40e+03,-4.30e+03,5.26e+04
1930,4.30e+04,2.78e+03,9.79e+03,1.00e+04,-6.74e+03,-9.04e+02,4.27e+04
1931,2.16e+04,1.73e+03,3.79e+03,6.76e+03,-5.22e+02,2.14e+03,2.26e+04
1932,5.94e+04,2.86e+03,1.12e+04,5.98e+03,-5.47e+03,-4.30e+03,5.52e+04
1933,9.87e+04,3.76e+04,3.14e+04,2.74e+04,-1.19e+04,-2.46e+03,8.28e+04
1934,2.63e+04,-3.63e+03,3.56e+03,1.26e+04,1.51e+03,-5.78e+02,3.49e+04
1935,3.39e+04,2.25e+03,3.95e+03,9.15e+03,1.65e+03,-5.19e+02,3.48e+04
1936,5.74e+04,2.46e+04,2.46e+04,-5.57e+03,-1.69e+03,0.00e+00,3.43e+04
1937,4.50e+04,1.93e+04,1.93e+04,3.56e+03,-3.92e+03,0.00e+00,2.73e+04
1938,4.49e+04,1.50e+02,7.62e+03,1.65e+03,-4.13e+03,1.19e+03,4.23e+04
1939,4.94e+04,2.21e+03,9.86e+03,3.17e+02,-3.28e+03,1.32e+03,4.43e+04
1940,4.41e+04,7.24e+03,1.30e+04,4.65e+02,-4.28e+03,4.73e+03,3.61e+04
1941,5.66e+04,5.13e+03,1.26e+04,-1.62e+03,-3.79e+03,1.19e+03,4.87e+04
1942,6.52e+04,8.98e+03,1.66e+04,-2.42e+03,-2.55e+03,1.32e+03,5.32e+04
1943,6.39e+04,1.60e+03,7.84e+03,-4.62e+02,-8.39e+02,-9.44e+02,5.95e+04
1944,5.09e+04,7.21e+01,7.77e+03,1.36e+03,-5.40e+03,-3.51e+03,4.88e+04
1945,6.45e+04,2.01e+03,1.13e+04,-1.01e+03,-2.10e+03,-1.84e+03,5.86e+04
1946,7.97e+04,8.39e+03,1.46e+04,-7.81e+03,-4.28e+02,-9.44e+02,6.98e+04
1947,5.98e+04,3.90e+03,1.16e+04,-3.22e+03,-5.47e+03,-3.51e+03,5.40e+04
1948,8.77e+04,1.20e+04,2.04e+04,-9.24e+03,-1.19e+04,-9.00e+02,7.65e+04
1949,1.20e+05,3.50e+04,3.37e+04,1.39e+04,7.58e+03,1.45e+03,8.98e+04
1950,6.06e+04,6.29e+02,7.22e+03,-3.24e+03,-4.79e+03,-1.26e+03,5.79e+04
1951,5.74e+04,2.46e+04,2.46e+04,-5.57e+03,-1.69e+03,0.00e+00,3.43e+04
1952,2.71e+04,1.16e+04,1.16e+04,-9.09e+03,-3.13e+03,0.00e+00,2.28e+04
1953,2.56e+04,5.34e+03,4.59e+03,-1.37e+04,-1.75e+03,-9.12e+02,3.16e+04
1954,5.15e+04,7.20e+03,1.20e+04,-1.18e+04,-3.28e+03,2.58e+03,4.74e+04
1955,3.92e+04,1.21e+04,1.38e+04,-1.09e+04,-6.01e+03,-2.07e+03,3.42e+04
1956,2.48e+04,5.00e+03,4.25e+03,-1.37e+04,-1.22e+03,-9.12e+02,3.12e+04
1957,6.73e+04,1.40e+04,1.88e+04,-1.46e+04,-2.55e+03,2.58e+03,5.73e+04
1958,6.87e+04,1.28e+04,1.26e+04,-2.26e+04,-8.39e+02,1.39e+02,6.83e+04
1959,1.96e+04,8.16e+03,3.17e+03,-2.17e+04,-3.30e+03,7.68e+03,4.28e+04
1960,4.72e+04,7.81e+03,8.01e+03,-1.79e+04,3.58e+03,2.51e+03,5.07e+04
1961,8.45e+04,1.95e+04,1.94e+04,-2.99e+04,-4.28e+02,1.39e+02,8.31e+04
1962,9.22e+03,3.71e+03,-1.28e+03,-1.94e+04,-2.41e+03,7.68e+03,3.75e+04
1963,2.00e+04,4.17e+04,1.32e+04,-3.21e+04,-7.31e+02,-2.68e+02,6.13e+04
1964,1.38e+05,7.81e+04,5.21e+04,-5.76e+04,7.58e+03,6.74e+03,1.27e+05
1965,5.01e+04,2.86e+04,1.57e+04,-3.20e+04,-1.02e+04,9.52e+03,6.75e+04
1966,1.08e+04,4.61e+03,4.61e+03,-7.67e+03,-6.23e+02,0.00e+00,1.47e+04
1967,2.71e+04,1.16e+04,1.16e+04,-9.09e+03,-3.13e+03,0.00e+00,2.28e+04
1968,2.72e+04,9.18e+03,6.24e+03,-1.20e+04,-1.75e+03,-1.22e+03,2.88e+04
1969,1.03e+04,1.11e+04,4.28e+03,-1.06e+04,-2.35e+03,2.67e+03,2.05e+04
1970,1.83e+04,8.63e+03,5.35e+03,-1.03e+04,7.23e+01,4.53e+02,2.14e+04
1971,2.64e+04,8.84e+03,5.90e+03,-1.19e+04,-1.22e+03,-1.22e+03,2.84e+04
1972,7.11e+03,9.72e+03,2.92e+03,-6.73e+03,-1.49e+03,2.67e+03,1.41e+04
1973,8.93e+03,1.63e+04,4.15e+03,-1.20e+04,-7.26e+02,1.18e+03,2.34e+04
1974,2.05e+04,1.01e+04,4.02e+03,-9.05e+03,-3.30e+03,5.53e+03,2.40e+04
1975,1.99e+04,1.67e+04,7.25e+03,-1.06e+04,-3.76e+03,2.76e+03,2.30e+04
1976,3.36e+03,1.39e+04,1.76e+03,-6.08e+03,-4.99e+02,1.18e+03,1.57e+04
1977,1.01e+04,5.69e+03,-4.29e+02,-6.78e+03,-2.41e+03,5.53e+03,1.82e+04
1978,3.43e+03,3.05e+03,-3.40e+03,-3.33e+03,-7.31e+02,-1.21e+03,9.14e+03
1979,4.22e+03,8.48e+03,1.56e+03,-7.29e+03,8.61e+02,1.41e+03,1.43e+04
1980,4.22e+03,1.21e+04,7.43e+02,-5.79e+03,-2.76e+02,2.15e+03,1.47e+04
1981,1.08e+04,4.61e+03,4.61e+03,-7.67e+03,-6.23e+02,0.00e+00,1.47e+04
1982,1.91e+03,8.19e+02,8.19e+02,-4.22e+03,-1.01e+03,0.00e+00,7.59e+03
1983,4.28e+03,8.71e+03,2.41e+03,-6.84e+03,-1.69e+02,5.52e+02,1.31e+04
1984,8.63e+03,7.23e+03,2.63e+03,-7.36e+03,-2.35e+03,1.90e+03,1.48e+04
1985,8.26e+03,7.51e+03,4.31e+03,-7.00e+03,-1.87e+03,1.28e+03,1.33e+04
1986,2.26e+03,7.84e+03,1.54e+03,-3.43e+03,1.16e+01,5.52e+02,8.48e+03
1987,5.46e+03,5.87e+03,1.27e+03,-3.45e+03,-1.49e+03,1.90e+03,8.52e+03
1988,5.65e+03,8.65e+03,8.65e+02,-4.50e+03,-7.26e+02,8.87e+02,1.05e+04
1989,2.12e+03,6.66e+03,9.71e+02,-3.70e+03,5.54e+01,1.19e+03,8.51e+03
1990,2.17e+03,7.01e+03,2.90e+02,-3.40e+03,-2.68e+02,1.09e+03,8.63e+03
1991,7.77e+01,6.26e+03,-1.52e+03,1.41e+03,-4.99e+02,8.87e+02,7.73e+03
1992,1.01e+03,6.18e+03,4.94e+02,-1.20e+03,4.13e+02,1.19e+03,6.23e+03
1993,5.60e+02,-7.62e+02,-1.58e+03,-1.06e+03,-3.75e+02,3.66e+02,2.77e+03
1994,4.50e+02,-3.20e+02,-2.21e+03,6.36e+02,8.61e+02,3.91e+02,3.09e+03
1995,2.06e+02,1.97e+03,-1.83e+03,-6.49e+01,4.20e+02,-3.84e+02,3.44e+03
1996,4.10e+02,1.76e+02,1.76e+02,-2.97e+03,-2.19e+02,0.00e+00,5.16e+03
1997,1.91e+03,8.19e+02,8.19e+02,-4.22e+03,-1.01e+03,0.00e+00,7.59e+03
1998,2.42e+03,4.38e+03,5.51e+02,-4.78e+03,-1.69e+02,3.87e+02,8.95e+03
1999,1.59e+03,3.68e+03,8.03e+02,-3.23e+03,-5.97e+02,4.59e+02,6.29e+03
2000,1.45e+03,1.82e+03,1.25e+02,-3.77e+03,-4.35e+02,-1.91e+02,6.77e+03
2001,4.10e+02,3.52e+03,-3.11e+02,-1.37e+03,1.16e+01,3.87e+02,4.30e+03
2002,8.33e+02,3.36e+03,4.78e+02,-1.57e+03,-3.12e+02,4.59e+02,3.96e+03
2003,8.16e+02,3.01e+03,-1.00e+02,-1.53e+03,-1.78e+02,4.82e+02,3.94e+03
2004,5.59e+02,3.01e+03,-5.93e+02,-1.64e+03,5.54e+01,5.57e+02,4.38e+03
2005,1.49e+02,3.15e+03,-3.10e+02,-1.55e+03,5.15e+01,3.48e+02,4.26e+03
2006,4.62e+02,2.86e+03,-2.52e+02,-1.72e+02,-9.97e+01,4.82e+02,2.96e+03
2007,-5.56e+02,2.53e+03,-1.07e+03,8.49e+02,4.13e+02,5.57e+02,3.87e+03
2008,4.78e+02,-9.55e+02,-1.67e+03,8.88e+02,-3.75e+02,1.99e+02,2.55e+03
2009,-7.01e+01,-5.40e+02,-1.35e+03,-1.19e+02,2.01e+02,5.23e+02,1.49e+03
2010,-4.27e+01,1.08e+03,-9.99e+02,3.96e+02,-4.68e+01,1.05e+03,2.65e+03
2011,4.10e+02,1.76e+02,1.76e+02,-2.97e+03,-2.19e+02,0.00e+00,5.16e+03
2012,2.54e+03,1.09e+03,1.09e+03,-2.30e+03,-6.36e+02,0.00e+00,4.39e+03
2013,2.47e+03,1.56e+03,3.01e+02,-2.12e+03,-2.25e+02,2.79e+02,4.17e+03
2014,5.66e+02,1.29e+03,-2.23e+02,-2.32e+03,-5.97e+02,5.23e+01,4.36e+03
2015,1.63e+03,1.34e+03,4.41e+02,-2.38e+03,-1.74e+02,1.04e+02,4.28e+03
2016,1.06e+02,5.43e+02,-7.15e+02,-7.08e+02,-1.22e+02,2.79e+02,1.73e+03
2017,-1.93e+02,9.62e+02,-5.48e+02,-6.68e+02,-3.12e+02,5.23e+01,1.87e+03
2018,-5.53e+01,9.80e+02,-9.71e+02,-8.99e+02,-1.78e+02,3.14e+02,2.38e+03
2019,6.61e+01,5.94e+02,-1.05e+03,-6.37e+02,-2.64e+02,1.61e+02,1.90e+03
2020,-1.95e+02,5.86e+02,-9.22e+02,-7.18e+02,-2.63e+02,2.54e+02,1.91e+03
2021,-4.09e+02,8.28e+02,-1.12e+03,4.61e+02,-9.97e+01,3.14e+02,1.97e+03
2022,-2.78e+02,4.46e+02,-1.20e+03,1.21e+02,-2.49e+01,1.61e+02,1.47e+03
2023,-2.08e+02,-1.57e+02,-1.42e+03,2.08e+02,-9.66e+01,1.55e+02,1.33e+03
2024,8.70e+00,-3.56e+02,-1.27e+03,3.45e+02,2.01e+02,2.16e+02,1.38e+03
2025,-4.18e+02,6.23e+01,-1.39e+03,2.42e+02,-1.92e+01,3.82e+01,1.35e+03
2026,-4.01e+02,-1.72e+02,-1.72e+02,-2.73e+03,6.20e+02,0.00e+00,4.86e+03
2027,-2.29e+03,-9.81e+02,-9.81e+02,-1.98e+03,9.40e+02,0.00e+00,4.01e+03
2028,-2.38e+03,-1.45e+03,-4.14e+02,-1.96e+03,6.40e+02,4.09e+02,4.02e+03
2029,-4.80e+02,-9.90e+02,5.78e+01,-1.90e+03,8.82e+02,2.20e+02,3.75e+03
2030,-1.62e+03,-1.47e+03,-5.80e+02,-2.13e+03,5.55e+02,1.80e+02,3.95e+03
2031,-1.70e+02,-5.01e+02,5.33e+02,-6.75e+02,3.59e+02,4.09e+02,1.76e+03
2032,1.41e+02,-7.24e+02,3.24e+02,-6.14e+02,4.80e+02,2.20e+02,1.71e+03
2033,-2.20e-01,-9.16e+02,7.23e+02,-8.41e+02,3.15e+02,4.84e+02,2.27e+03
2034,-9.83e+01,-4.60e+02,7.70e+02,-5.63e+02,4.49e+02,3.26e+02,1.75e+03
2035,9.26e+01,-4.39e+02,6.52e+02,-6.33e+02,4.36e+02,3.96e+02,1.77e+03
2036,3.29e+02,-7.75e+02,8.64e+02,3.93e+02,9.25e+01,4.84e+02,1.81e+03
2037,2.39e+02,-3.15e+02,9.14e+02,7.76e+01,9.58e+01,3.26e+02,1.23e+03
2038,1.33e+02,8.02e+01,1.12e+03,1.75e+02,1.34e+02,3.02e+02,1.20e+03
2039,4.55e+01,2.78e+02,1.02e+03,2.35e+02,-1.50e+02,3.49e+02,1.17e+03
2040,4.31e+02,-1.08e+01,1.16e+03,1.65e+02,4.13e+01,2.21e+02,1.14e+03
2041,-4.01e+02,-1.72e+02,-1.72e+02,-2.73e+03,6.20e+02,0.00e+00,4.86e+03
2042,-1.36e+03,-5.83e+02,-5.83e+02,-3.40e+03,1.49e+03,0.00e+00,6.48e+03
2043,-2.20e+03,-3.95e+03,-5.78e+02,-4.34e+03,8.53e+02,8.82e+02,8.35e+03
2044,-1.26e+03,-2.81e+03,-7.24e+02,-2.64e+03,8.82e+02,8.31e+02,5.37e+03
2045,-7.53e+02,-8.08e+02,4.77e+02,-3.18e+03,9.42e+02,8.47e+01,5.88e+03
2046,-3.94e+02,-3.18e+03,1.95e+02,-1.29e+03,3.65e+02,8.82e+02,4.18e+03
2047,-6.40e+02,-2.55e+03,-4.58e+02,-1.35e+03,4.80e+02,8.31e+02,3.51e+03
2048,-7.83e+02,-2.74e+03,-6.05e+01,-1.44e+03,3.15e+02,9.62e+02,3.88e+03
2049,-2.97e+02,-2.24e+03,2.59e+02,-1.35e+03,1.85e+02,1.07e+03,3.76e+03
2050,-3.30e+02,-2.80e+03,-2.36e+01,-1.49e+03,2.07e+02,8.53e+02,3.99e+03
2051,-4.54e+02,-2.60e+03,8.05e+01,-2.03e+02,9.25e+01,9.62e+02,3.00e+03
2052,4.89e+02,-1.90e+03,5.96e+02,5.20e+02,-3.23e+02,1.07e+03,3.25e+03
2053,-4.95e+02,7.26e+02,1.11e+03,7.63e+02,2.83e+02,5.06e+02,2.21e+03
2054,7.29e+01,3.42e+02,1.04e+03,-1.18e+02,-1.50e+02,7.59e+02,1.61e+03
2055,2.48e+01,-1.20e+03,4.41e+02,3.12e+02,-1.76e+01,1.33e+03,2.78e+03
2056,-9.71e+03,-4.16e+03,-4.16e+03,-6.95e+03,1.82e+03,0.00e+00,1.36e+04
2057,-1.36e+03,-5.83e+02,-5.83e+02,-3.40e+03,1.49e+03,0.00e+00,6.48e+03
2058,-3.87e+03,-7.85e+03,-2.25e+03,-6.21e+03,8.53e+02,1.40e+03,1.22e+04
2059,-6.29e+03,-5.38e+03,-2.53e+03,-5.59e+03,3.32e+03,2.55e+03,1.26e+04
2060,-7.95e+03,-7.75e+03,-5.06e+03,-6.17e+03,2.65e+03,1.61e+03,1.23e+04
2061,-2.07e+03,-7.08e+03,-1.48e+03,-3.16e+03,3.65e+02,1.40e+03,8.04e+03
2062,-3.96e+03,-4.38e+03,-1.53e+03,-2.71e+03,2.28e+03,2.55e+03,8.02e+03
2063,-5.04e+03,-7.84e+03,-1.01e+03,-4.09e+03,1.48e+03,2.06e+03,1.02e+04
2064,-1.44e+03,-4.90e+03,-8.82e+02,-2.83e+03,1.85e+02,2.07e+03,7.15e+03
2065,-5.90e+02,-5.19e+03,2.61e+02,-2.61e+03,8.25e+02,2.03e+03,7.79e+03
2066,-1.18e+02,-5.73e+03,1.10e+03,1.21e+03,7.99e+02,2.06e+03,7.68e+03
2067,-6.53e+02,-4.56e+03,-5.46e+02,-9.60e+02,-3.23e+02,2.07e+03,5.62e+03
2068,-5.92e+02,5.00e+02,1.02e+03,-9.98e+02,2.83e+02,8.91e+02,2.76e+03
2069,-2.04e+02,-9.36e+00,1.28e+03,3.56e+02,-4.94e+02,7.37e+02,2.17e+03
2070,-7.81e+02,-1.21e+03,1.47e+03,-2.32e+02,-2.49e+02,5.95e+02,2.76e+03
2071,-9.71e+03,-4.16e+03,-4.16e+03,-6.95e+03,1.82e+03,0.00e+00,1.36e+04
2072,-1.93e+04,-8.29e+03,-8.29e+03,-6.89e+03,4.62e+03,0.00e+00,1.81e+04
2073,-2.44e+04,-8.13e+03,-5.73e+03,-1.07e+04,4.64e+03,4.84e+02,2.68e+04
2074,-7.50e+03,-8.20e+03,-3.74e+03,-8.01e+03,3.32e+03,3.87e+03,1.70e+04
2075,-1.27e+04,-4.39e+03,-2.10e+03,-8.07e+03,2.07e+03,1.19e+03,1.75e+04
2076,-2.41e+04,-8.01e+03,-5.61e+03,-1.09e+04,3.25e+03,4.84e+02,2.63e+04
2077,-5.17e+03,-7.20e+03,-2.74e+03,-5.13e+03,2.28e+03,3.87e+03,1.24e+04
2078,-8.05e+03,-1.49e+04,-4.01e+03,-1.10e+04,1.48e+03,2.99e+03,2.20e+04
2079,-1.43e+04,-6.92e+03,-3.84e+03,-6.42e+03,5.43e+03,6.60e+03,2.07e+04
2080,-1.96e+04,-1.57e+04,-8.22e+03,-9.55e+03,4.92e+03,4.30e+03,2.24e+04
2081,-3.12e+03,-1.28e+04,-1.90e+03,-5.65e+03,7.99e+02,2.99e+03,1.52e+04
2082,-6.87e+03,-3.75e+03,-6.77e+02,-5.34e+03,4.27e+03,6.60e+03,1.73e+04
2083,-2.84e+03,-2.51e+03,2.32e+03,-2.85e+03,2.73e+03,-1.53e+02,8.48e+03
2084,-3.01e+03,-6.55e+03,-1.52e+03,-5.22e+03,-4.94e+02,1.93e+03,1.07e+04
2085,4.71e+02,-9.94e+03,-3.47e+02,-4.34e+03,1.36e+03,3.33e+03,1.40e+04
2086,-5.10e+04,-2.19e+04,-2.19e+04,-4.91e+03,5.09e+03,0.00e+00,3.16e+04
2087,-1.93e+04,-8.29e+03,-8.29e+03,-6.89e+03,4.62e+03,0.00e+00,1.81e+04
2088,-2.29e+04,-4.62e+03,-4.23e+03,-1.22e+04,4.64e+03,1.64e+03,2.93e+04
2089,-3.77e+04,-5.26e+03,-1.12e+04,-8.44e+03,7.54e+03,3.01e+03,3.61e+04
2090,-3.42e+04,-1.25e+04,-1.45e+04,-9.67e+03,8.62e+03,-6.31e+02,3.06e+04
2091,-2.26e+04,-4.50e+03,-4.11e+03,-1.24e+04,3.25e+03,1.64e+03,2.89e+04
2092,-4.86e+04,-9.96e+03,-1.59e+04,-1.05e+04,7.58e+03,3.01e+03,4.28e+04
2093,-6.28e+04,-1.09e+04,-1.12e+04,-2.04e+04,8.21e+03,2.90e+03,6.44e+04
2094,-1.35e+04,-5.16e+03,-3.09e+03,-1.57e+04,5.43e+03,1.05e+04,3.54e+04
2095,-3.20e+04,-1.55e+03,-2.24e+03,-1.34e+04,1.54e+03,5.09e+03,3.91e+04
2096,-7.96e+04,-1.81e+04,-1.84e+04,-2.75e+04,8.61e+03,2.90e+03,7.92e+04
2097,-6.12e+03,-1.99e+03,8.01e+01,-1.46e+04,4.27e+03,1.05e+04,3.25e+04
2098,-1.81e+04,-3.82e+04,-1.30e+04,-3.01e+04,2.73e+03,3.78e+03,5.75e+04
2099,-8.86e+04,-4.55e+04,-2.70e+04,-3.92e+04,1.03e+04,1.43e+04,9.23e+04
2100,-5.51e+04,-2.94e+04,-2.14e+04,-2.85e+04,1.46e+04,1.24e+04,6.69e+04
2101,-5.10e+04,-2.19e+04,-2.19e+04,-4.91e+03,5.09e+03,0.00e+00,3.16e+04
2102,-3.23e+04,-1.38e+04,-1.38e+04,3.07e+03,5.96e+03,0.00e+00,2.18e+04
2103,-4.03e+04,3.52e+02,-6.48e+03,1.55e+03,8.07e+03,-2.82e+02,4.03e+04
2104,-3.60e+04,-1.47e+03,-9.53e+03,2.44e+02,7.54e+03,2.02e+03,3.41e+04
2105,-3.61e+04,-5.67e+03,-1.16e+04,1.31e+03,7.76e+03,3.69e+03,3.17e+04
2106,-5.17e+04,-4.54e+03,-1.14e+04,-1.23e+03,7.16e+03,-2.82e+02,4.59e+04
2107,-4.70e+04,-6.17e+03,-1.42e+04,-1.84e+03,7.58e+03,2.02e+03,4.00e+04
2108,-5.83e+04,-5.25e+02,-6.70e+03,-4.03e+02,8.21e+03,2.34e+01,5.68e+04
2109,-3.67e+04,1.40e+03,-7.53e+03,1.23e+03,9.91e+03,-4.67e+03,3.94e+04
2110,-5.13e+04,-6.56e+02,-8.27e+03,-2.00e+03,7.47e+03,-2.06e+03,4.93e+04
2111,-7.51e+04,-7.74e+03,-1.39e+04,-7.48e+03,8.61e+03,2.34e+01,6.75e+04
2112,-4.44e+04,-1.92e+03,-1.09e+04,-1.18e+03,1.21e+04,-4.67e+03,4.49e+04
2113,-8.55e+04,-9.05e+03,-1.80e+04,-8.88e+03,2.05e+04,-7.86e+02,8.21e+04
2114,-7.61e+04,-1.65e+04,-1.46e+04,9.05e+03,1.03e+04,2.46e+03,6.52e+04
2115,-5.20e+04,4.16e+03,-5.75e+03,-8.31e+02,1.30e+04,8.60e+01,5.66e+04
2116,-1.68e+04,-7.20e+03,-7.20e+03,8.58e+03,1.45e+03,0.00e+00,1.79e+04
2117,-3.23e+04,-1.38e+04,-1.38e+04,3.07e+03,5.96e+03,0.00e+00,2.18e+04
2118,-4.01e+04,9.40e+02,-6.23e+03,1.01e+04,8.07e+03,-5.31e+02,4.40e+04
2119,-1.17e+04,-4.82e+02,-3.03e+03,9.16e+03,2.32e+03,-6.60e+03,2.24e+04
2120,-1.83e+04,3.39e+02,-4.90e+02,7.67e+03,1.86e+03,-4.18e+03,2.39e+04
2121,-5.15e+04,-3.96e+03,-1.11e+04,7.29e+03,7.16e+03,-5.31e+02,4.78e+04
2122,-1.48e+04,-1.78e+03,-4.33e+03,5.99e+03,2.11e+03,-6.60e+03,1.98e+04
2123,-1.85e+04,-6.84e+02,-2.82e+03,1.25e+04,2.50e+03,-6.25e+02,2.79e+04
2124,-3.63e+04,2.24e+03,-7.18e+03,7.78e+03,9.91e+03,-4.35e+03,4.18e+04
2125,-4.06e+04,-3.12e+03,-1.11e+04,9.59e+03,8.96e+03,-2.82e+03,4.13e+04
2126,-2.08e+04,-1.65e+03,-3.79e+03,6.99e+03,2.38e+03,-6.25e+02,2.22e+04
2127,-4.41e+04,-1.09e+03,-1.05e+04,5.37e+03,1.21e+04,-4.35e+03,4.60e+04
2128,-9.74e+04,-3.67e+04,-2.99e+04,2.76e+04,2.05e+04,-1.76e+03,8.78e+04
2129,-1.88e+04,6.34e+03,-2.72e+02,1.03e+04,2.15e+03,-3.16e+02,2.90e+04
2130,-1.98e+04,-6.34e+02,3.33e+02,7.41e+03,3.82e+03,-1.79e+03,2.46e+04
2131,-1.68e+04,-7.20e+03,-7.20e+03,8.58e+03,1.45e+03,0.00e+00,1.79e+04
2132,1.29e+04,5.53e+03,5.53e+03,7.22e+03,-2.27e+03,0.00e+00,1.50e+04
2133,1.49e+04,-1.06e+03,2.05e+03,1.44e+04,-2.91e+03,-1.05e+03,2.95e+04
2134,-1.11e+04,1.01e+03,-2.40e+03,1.14e+04,2.32e+03,-6.41e+03,2.54e+04
2135,-5.12e+03,-5.14e+03,-7.10e+03,1.14e+04,3.13e+03,-2.11e+03,2.10e+04
2136,1.87e+04,5.38e+02,3.65e+03,9.50e+03,-2.58e+03,-1.05e+03,2.40e+04
2137,-1.41e+04,-2.95e+02,-3.70e+03,8.21e+03,2.11e+03,-6.41e+03,2.22e+04
2138,-1.78e+04,9.98e+02,-2.10e+03,1.46e+04,2.50e+03,-7.38e+02,3.11e+04
2139,1.38e+04,-1.07e+03,2.65e+03,1.15e+04,-3.46e+03,-7.30e+03,2.78e+04
2140,7.87e+03,2.33e+03,5.02e+03,1.11e+04,-4.46e+03,-4.39e+03,2.26e+04
2141,-2.01e+04,2.68e+01,-3.07e+03,9.06e+03,2.38e+03,-7.38e+02,2.48e+04
2142,1.60e+04,-1.06e+02,3.61e+03,8.93e+03,-4.11e+03,-7.30e+03,2.58e+04
2143,3.53e+04,1.73e+04,1.27e+04,2.18e+04,-6.85e+03,-6.54e+02,4.46e+04
2144,-2.74e+04,-1.37e+04,-8.88e+03,1.89e+04,2.15e+03,-9.54e+02,3.69e+04
2145,-1.04e+04,1.59e+03,-3.39e+03,1.15e+04,3.66e+03,-2.63e+03,2.38e+04
2146,4.50e+04,1.93e+04,1.93e+04,3.56e+03,-3.92e+03,0.00e+00,2.73e+04
2147,1.29e+04,5.53e+03,5.53e+03,7.22e+03,-2.27e+03,0.00e+00,1.50e+04
2148,1.57e+04,8.58e+02,2.87e+03,1.18e+04,-2.91e+03,-9.54e+02,2.53e+04
2149,3.14e+04,-4.02e+02,7.40e+03,7.98e+03,-6.13e+03,-3.68e+03,3.42e+04
2150,2.77e+04,8.11e+03,1.25e+04,9.21e+03,-6.92e+03,8.38e+02,2.68e+04
2151,1.95e+04,2.46e+03,4.47e+03,6.85e+03,-2.58e+03,-9.54e+02,2.06e+04
2152,4.06e+04,3.54e+03,1.13e+04,6.19e+03,-5.78e+03,-3.68e+03,3.74e+04
2153,5.01e+04,-1.27e+03,6.62e+03,1.06e+04,-6.92e+03,1.48e+02,5.27e+04
2154,1.43e+04,2.77e+02,3.22e+03,1.03e+04,-3.46e+03,-7.61e+03,2.63e+04
2155,2.79e+04,-2.84e+02,2.51e+03,7.83e+03,-1.13e+03,-4.15e+03,3.10e+04
2156,5.91e+04,2.55e+03,1.04e+04,5.98e+03,-6.99e+03,1.48e+02,5.54e+04
2157,1.66e+04,1.24e+03,4.19e+03,7.66e+03,-4.11e+03,-7.61e+03,2.45e+04
2158,2.64e+04,-3.55e+03,3.76e+03,1.26e+04,-6.85e+03,-5.43e+02,3.67e+04
2159,7.59e+04,2.78e+04,2.16e+04,2.41e+04,-5.79e+03,1.26e+03,6.70e+04
2160,4.06e+04,-1.57e+03,7.65e+03,1.02e+04,-1.04e+04,-2.25e+03,4.61e+04
2161,4.50e+04,1.93e+04,1.93e+04,3.56e+03,-3.92e+03,0.00e+00,2.73e+04
2162,3.71e+04,1.59e+04,1.59e+04,-3.72e+03,-7.61e+03,0.00e+00,2.58e+04
2163,4.84e+04,1.29e+03,7.72e+03,3.17e+02,-1.01e+04,-3.82e+02,4.76e+04
2164,3.16e+04,9.90e+01,7.62e+03,1.11e+03,-6.13e+03,-3.92e+03,3.12e+04
2165,3.42e+04,4.68e+03,7.67e+03,-1.03e+03,-6.71e+03,-4.57e+03,3.15e+04
2166,6.43e+04,8.07e+03,1.45e+04,-2.42e+03,-9.38e+03,-3.82e+02,5.59e+04
2167,4.08e+04,4.04e+03,1.16e+04,-6.74e+02,-5.78e+03,-3.92e+03,3.58e+04
2168,5.06e+04,-2.29e+02,7.07e+03,1.36e+03,-6.92e+03,9.37e+02,4.92e+04
2169,4.13e+04,2.43e+02,9.82e+03,-1.57e+03,-1.34e+04,3.95e+03,4.45e+04
2170,5.75e+04,4.47e+02,1.19e+04,9.79e+02,-9.78e+03,8.16e+02,5.50e+04
2171,5.95e+04,3.60e+03,1.09e+04,-3.22e+03,-6.99e+03,9.37e+02,5.43e+04
2172,5.22e+04,4.94e+03,1.45e+04,-6.40e+03,-1.71e+04,3.95e+03,5.40e+04
2173,1.20e+05,3.54e+04,3.47e+04,1.39e+04,-2.96e+04,3.10e+03,1.02e+05
2174,6.53e+04,3.02e+03,1.10e+04,-8.91e+03,-5.79e+03,5.51e+03,6.22e+04
2175,4.19e+04,1.24e+03,3.95e+03,-5.66e+03,-1.22e+04,2.49e+03,4.60e+04
2176,2.71e+04,1.16e+04,1.16e+04,-9.09e+03,-3.13e+03,0.00e+00,2.28e+04
2177,3.71e+04,1.59e+04,1.59e+04,-3.72e+03,-7.61e+03,0.00e+00,2.58e+04
2178,5.06e+04,6.28e+03,9.86e+03,-1.18e+04,-1.01e+04,8.78e+02,5.05e+04
2179,1.66e+04,3.76e+03,4.69e+03,-9.26e+03,-5.75e+03,6.66e+03,2.53e+04
2180,2.60e+04,3.13e+03,3.88e+03,-7.59e+03,-4.19e+03,4.10e+03,2.79e+04
2181,6.64e+04,1.31e+04,1.66e+04,-1.46e+04,-9.38e+03,8.78e+02,5.97e+04
2182,1.59e+04,3.48e+03,4.41e+03,-9.24e+03,-3.99e+03,6.66e+03,2.41e+04
2183,2.01e+04,8.62e+03,4.26e+03,-2.17e+04,-3.48e+03,2.97e+03,4.09e+04
2184,4.44e+04,7.66e+03,1.30e+04,-1.39e+04,-1.34e+04,6.50e+03,4.94e+04
2185,5.11e+04,1.48e+04,1.71e+04,-1.68e+04,-1.24e+04,5.01e+03,5.12e+04
2186,9.68e+03,4.17e+03,-1.96e+02,-1.94e+04,-2.59e+03,2.97e+03,3.54e+04
2187,5.54e+04,1.24e+04,1.77e+04,-1.88e+04,-1.71e+04,6.50e+03,6.09e+04
2188,1.39e+05,7.85e+04,5.31e+04,-5.76e+04,-2.96e+04,8.39e+03,1.36e+05
2189,1.25e+04,2.51e+04,1.11e+04,-2.04e+04,-2.85e+03,1.18e+04,4.33e+04
2190,1.53e+04,9.14e+03,-1.88e+03,-2.27e+04,-3.35e+03,3.38e+03,4.29e+04
2191,2.71e+04,1.16e+04,1.16e+04,-9.09e+03,-3.13e+03,0.00e+00,2.28e+04
2192,6.70e+03,2.87e+03,2.87e+03,-5.32e+03,-2.67e+03,0.00e+00,1.10e+04
2193,1.02e+04,1.10e+04,4.03e+03,-1.06e+04,-1.83e+03,1.84e+03,2.01e+04
2194,1.76e+04,6.14e+03,5.71e+03,-7.83e+03,-5.75e+03,4.40e+03,2.18e+04
2195,1.96e+04,1.30e+04,1.03e+04,-9.64e+03,-5.34e+03,1.76e+03,2.10e+04
2196,7.00e+03,9.61e+03,2.67e+03,-6.73e+03,-9.68e+02,1.84e+03,1.36e+04
2197,1.70e+04,5.87e+03,5.44e+03,-7.81e+03,-3.99e+03,4.40e+03,2.04e+04
2198,2.09e+04,1.06e+04,5.10e+03,-9.05e+03,-3.48e+03,8.20e+02,2.19e+04
2199,5.37e+03,1.04e+04,3.33e+03,-7.78e+03,-1.20e+03,3.87e+03,1.64e+04
2200,9.28e+03,9.49e+03,2.38e+03,-7.17e+03,-6.30e+02,2.47e+03,1.49e+04
2201,1.05e+04,6.15e+03,6.53e+02,-6.78e+03,-2.59e+03,8.20e+02,1.53e+04
2202,1.95e+03,8.90e+03,1.86e+03,-4.03e+03,-3.91e+02,3.87e+03,1.20e+04
2203,4.56e+03,8.82e+03,2.34e+03,-7.29e+03,-1.06e+03,2.22e+03,1.45e+04
2204,2.35e+03,1.47e+03,1.03e+03,-1.59e+03,-2.85e+03,4.04e+03,9.07e+03
2205,1.10e+04,1.06e+04,3.90e+03,-5.83e+03,-2.37e+03,2.80e+03,1.38e+04
2206,1.91e+03,8.19e+02,8.19e+02,-4.22e+03,-1.01e+03,0.00e+00,7.59e+03
2207,6.70e+03,2.87e+03,2.87e+03,-5.32e+03,-2.67e+03,0.00e+00,1.10e+04
2208,8.52e+03,7.12e+03,2.37e+03,-7.36e+03,-1.83e+03,1.06e+03,1.44e+04
2209,2.77e+03,5.79e+03,1.96e+03,-4.75e+03,-1.60e+03,1.92e+03,9.94e+03
2210,3.95e+03,2.41e+03,1.04e+02,-5.34e+03,-1.27e+03,2.36e+02,1.01e+04
2211,5.35e+03,5.76e+03,1.01e+03,-3.45e+03,-9.68e+02,1.06e+03,7.91e+03
2212,1.42e+03,5.21e+03,1.38e+03,-2.49e+03,-9.50e+02,1.92e+03,6.84e+03
2213,2.21e+03,6.74e+03,1.18e+03,-3.70e+03,-6.60e+02,1.85e+03,8.88e+03
2214,3.30e+03,5.53e+03,1.26e+03,-2.98e+03,-1.20e+03,2.41e+03,7.87e+03
2215,3.92e+03,7.00e+03,1.93e+03,-3.47e+03,-1.19e+03,1.97e+03,8.46e+03
2216,1.10e+03,6.27e+03,6.99e+02,-1.20e+03,-3.03e+02,1.85e+03,6.62e+03
2217,-1.27e+02,4.06e+03,-2.10e+02,7.75e+02,-3.91e+02,2.41e+03,6.13e+03
2218,7.84e+02,1.33e+01,-1.44e+03,6.36e+02,-1.06e+03,1.21e+03,3.57e+03
2219,1.13e+02,-6.27e+02,-1.26e+03,-6.48e+02,4.19e+02,1.24e+03,2.79e+03
2220,-1.18e+03,2.74e+03,-5.98e+02,1.93e+02,-3.66e+02,2.62e+03,5.88e+03
2221,1.91e+03,8.19e+02,8.19e+02,-4.22e+03,-1.01e+03,0.00e+00,7.59e+03
2222,2.95e+02,1.27e+02,1.27e+02,-2.24e+03,-9.16e+02,0.00e+00,4.20e+03
2223,1.62e+03,3.71e+03,8.67e+02,-3.23e+03,-5.87e+02,8.64e+02,6.40e+03
2224,1.57e+03,2.98e+03,7.55e+02,-3.37e+03,-1.60e+03,1.08e+03,7.01e+03
2225,2.40e+03,3.41e+03,1.84e+03,-3.42e+03,-1.16e+03,8.61e+02,6.58e+03
2226,8.60e+02,3.38e+03,5.42e+02,-1.57e+03,-3.02e+02,8.64e+02,4.14e+03
2227,2.17e+02,2.41e+03,1.77e+02,-1.11e+03,-9.50e+02,1.08e+03,3.84e+03
2228,6.47e+02,3.09e+03,-3.87e+02,-1.64e+03,-6.60e+02,1.22e+03,4.84e+03
2229,4.86e+02,1.98e+03,-5.30e+01,-1.16e+03,-2.58e+02,1.04e+03,3.29e+03
2230,-4.14e+02,2.18e+03,-5.14e+02,-1.14e+03,-6.36e+02,1.18e+03,4.04e+03
2231,-4.68e+02,2.62e+03,-8.65e+02,8.49e+02,-3.03e+02,1.22e+03,4.22e+03
2232,2.38e+02,1.87e+03,-1.59e+02,-1.87e+02,6.29e+01,1.04e+03,2.62e+03
2233,9.16e+01,-3.78e+02,-9.69e+02,-1.19e+02,-1.43e+02,6.11e+02,1.44e+03
2234,6.31e+01,-7.44e+02,-1.31e+03,5.31e+02,4.19e+02,7.95e+02,2.17e+03
2235,-1.07e+02,3.68e+02,-1.22e+03,1.77e+02,1.60e+02,4.32e+02,1.65e+03
2236,2.54e+03,1.09e+03,1.09e+03,-2.30e+03,-6.36e+02,0.00e+00,4.39e+03
2237,2.95e+02,1.27e+02,1.27e+02,-2.24e+03,-9.16e+02,0.00e+00,4.20e+03
2238,5.94e+02,1.31e+03,-1.59e+02,-2.32e+03,-5.87e+02,4.58e+02,4.42e+03
2239,2.04e+03,1.11e+03,3.87e+02,-1.63e+03,-9.89e+02,2.16e+02,3.62e+03
2240,1.21e+03,3.45e+02,1.62e+02,-2.01e+03,-1.04e+03,1.42e+02,4.04e+03
2241,-1.66e+02,9.89e+02,-4.84e+02,-6.68e+02,-3.02e+02,4.58e+02,2.01e+03
2242,1.61e+02,3.05e+02,-4.18e+02,-5.95e+02,-5.83e+02,2.16e+02,1.63e+03
2243,1.91e+02,7.18e+02,-7.59e+02,-6.37e+02,-3.67e+02,4.16e+02,1.96e+03
2244,-1.07e+02,5.96e+02,-6.46e+02,-7.06e+02,-2.58e+02,3.50e+02,1.80e+03
2245,-2.06e+02,6.80e+02,-7.13e+02,-7.35e+02,-3.20e+02,3.22e+02,1.93e+03
2246,-1.54e+02,5.71e+02,-9.06e+02,1.21e+02,-1.28e+02,4.16e+02,1.50e+03
2247,-3.55e+02,4.90e+02,-7.52e+02,2.66e+02,6.29e+01,3.50e+02,1.34e+03
2248,1.70e+02,-1.94e+02,-8.90e+02,3.45e+02,-1.43e+02,3.04e+02,1.25e+03
2249,-2.52e+02,-2.09e+02,-1.15e+03,1.22e+02,-5.10e+01,3.28e+02,1.10e+03
2250,-8.83e+01,2.47e+02,-8.32e+02,2.45e+02,-1.33e+01,4.98e+02,1.36e+03
2251,-2.29e+03,-9.81e+02,-9.81e+02,-1.98e+03,9.40e+02,0.00e+00,4.01e+03
2252,-1.59e+02,-6.82e+01,-6.82e+01,-1.68e+03,1.04e+03,0.00e+00,3.42e+03
2253,-5.35e+02,-1.05e+03,-7.10e+01,-1.90e+03,8.76e+02,5.07e+02,3.82e+03
2254,-1.72e+03,-7.92e+02,-5.34e+02,-1.24e+03,1.16e+03,2.91e+02,3.18e+03
2255,-9.77e+02,-2.70e+01,-1.97e+02,-1.57e+03,1.24e+03,1.65e+02,3.59e+03
2256,8.62e+01,-7.79e+02,1.95e+02,-6.14e+02,4.75e+02,5.07e+02,1.85e+03
2257,-2.25e+02,-1.53e+02,1.06e+02,-4.93e+02,7.28e+02,2.91e+02,1.63e+03
2258,-2.74e+02,-6.35e+02,3.60e+02,-5.63e+02,5.30e+02,5.08e+02,1.82e+03
2259,6.32e+01,-3.50e+02,2.74e+02,-5.53e+02,3.99e+02,4.83e+02,1.55e+03
2260,9.44e+01,-5.98e+02,3.29e+02,-6.51e+02,4.83e+02,4.24e+02,1.79e+03
2261,6.32e+01,-4.91e+02,5.05e+02,7.76e+01,1.77e+02,5.08e+02,1.28e+03
2262,2.33e+02,-2.78e+02,3.47e+02,1.22e+02,3.06e+01,4.83e+02,1.04e+03
2263,-1.52e+02,8.09e+01,5.57e+02,2.35e+02,1.08e+02,4.25e+02,1.07e+03
2264,1.85e+02,1.64e+02,7.49e+02,6.38e+01,1.34e+02,4.29e+02,9.73e+02
2265,-3.93e+01,-2.37e+02,4.14e+02,1.73e+02,6.52e+01,5.75e+02,1.20e+03
2266,-1.36e+03,-5.83e+02,-5.83e+02,-3.40e+03,1.49e+03,0.00e+00,6.48e+03
2267,-1.59e+02,-6.82e+01,-6.82e+01,-1.68e+03,1.04e+03,0.00e+00,3.42e+03
2268,-1.32e+03,-2.87e+03,-8.53e+02,-2.64e+03,8.76e+02,1.12e+03,5.50e+03
2269,-7.78e+02,-1.68e+03,-9.28e+02,-2.18e+03,1.73e+03,1.29e+03,5.38e+03
2270,-2.12e+03,-3.12e+03,-2.07e+03,-2.68e+03,1.41e+03,9.08e+02,5.57e+03
2271,-6.96e+02,-2.60e+03,-5.86e+02,-1.35e+03,4.75e+02,1.12e+03,3.71e+03
2272,-2.14e+00,-1.35e+03,-5.96e+02,-9.46e+02,1.06e+03,1.29e+03,3.52e+03
2273,-4.63e+02,-2.40e+03,-1.29e+02,-1.35e+03,7.22e+02,1.50e+03,4.27e+03
2274,-2.93e+02,-1.18e+03,-8.22e+01,-8.34e+02,3.99e+02,1.19e+03,2.80e+03
2275,5.24e+02,-1.37e+03,1.58e+02,-8.57e+02,6.80e+02,1.37e+03,3.50e+03
2276,3.23e+02,-2.07e+03,2.08e+02,5.20e+02,2.15e+02,1.50e+03,3.62e+03
2277,-1.24e+02,-1.11e+03,-9.51e+00,-1.59e+02,3.06e+01,1.19e+03,2.33e+03
2278,-1.25e+02,1.45e+02,5.84e+02,-1.18e+02,1.08e+02,8.36e+02,1.60e+03
2279,4.88e+01,3.36e+02,8.02e+02,2.10e+02,-1.82e+02,9.06e+02,1.77e+03
2280,2.92e+01,-1.84e+02,7.84e+02,2.09e+01,-6.99e+01,7.65e+02,1.60e+03
2281,-1.36e+03,-5.83e+02,-5.83e+02,-3.40e+03,1.49e+03,0.00e+00,6.48e+03
2282,-2.40e+03,-1.03e+03,-1.03e+03,-3.15e+03,2.69e+03,0.00e+00,7.31e+03
2283,-6.32e+03,-5.41e+03,-2.60e+03,-5.59e+03,2.95e+03,1.90e+03,1.19e+04
2284,-1.27e+03,-2.83e+03,-1.42e+03,-2.79e+03,1.73e+03,2.06e+03,6.87e+03
2285,-9.73e+02,3.08e+02,1.10e+03,-3.40e+03,1.97e+03,6.03e+02,7.12e+03
2286,-4.00e+03,-4.42e+03,-1.60e+03,-2.71e+03,1.91e+03,1.90e+03,7.12e+03
2287,-4.92e+02,-2.49e+03,-1.09e+03,-1.56e+03,1.06e+03,2.06e+03,5.15e+03
2288,-1.60e+03,-5.07e+03,-1.27e+03,-2.83e+03,7.22e+02,2.49e+03,7.58e+03
2289,-1.49e+03,-2.32e+03,-1.84e+03,-1.50e+03,1.79e+03,3.05e+03,6.70e+03
2290,-3.80e+03,-5.24e+03,-2.89e+03,-2.74e+03,1.67e+03,2.52e+03,7.36e+03
2291,-8.19e+02,-4.73e+03,-9.33e+02,-9.60e+02,2.15e+02,2.49e+03,6.03e+03
2292,2.04e+02,-1.59e+03,-1.11e+03,-5.85e+01,9.52e+02,3.05e+03,5.77e+03
2293,-5.56e+02,-3.62e+02,4.63e+02,3.56e+02,8.04e+02,1.45e+03,3.08e+03
2294,9.35e-01,2.24e+02,7.54e+02,-2.46e+02,-1.82e+02,1.34e+03,2.47e+03
2295,1.47e+03,-2.44e+03,-4.36e+02,1.78e+02,2.76e+02,2.71e+03,5.82e+03
2296,-1.93e+04,-8.29e+03,-8.29e+03,-6.89e+03,4.62e+03,0.00e+00,1.81e+04
2297,-2.40e+03,-1.03e+03,-1.03e+03,-3.15e+03,2.69e+03,0.00e+00,7.31e+03
2298,-7.53e+03,-8.23e+03,-3.81e+03,-8.01e+03,2.95e+03,3.22e+03,1.63e+04
2299,-8.08e+03,-3.13e+03,-5.25e+03,-3.96e+03,6.57e+03,4.33e+03,1.59e+04
2300,-1.44e+04,-1.13e+04,-9.81e+03,-7.04e+03,5.67e+03,2.36e+03,1.67e+04
2301,-5.20e+03,-7.24e+03,-2.81e+03,-5.13e+03,1.91e+03,3.22e+03,1.16e+04
2302,-5.60e+03,-2.07e+03,-4.19e+03,-3.13e+03,4.65e+03,4.33e+03,1.27e+04
2303,-1.54e+04,-8.01e+03,-6.39e+03,-6.42e+03,5.83e+03,3.54e+03,1.82e+04
2304,-1.80e+03,-3.04e+03,-2.15e+03,-2.99e+03,1.79e+03,4.19e+03,9.50e+03
2305,-6.28e+02,-2.56e+03,-7.96e+02,-3.06e+03,2.39e+03,3.97e+03,9.79e+03
2306,-7.97e+03,-4.85e+03,-3.23e+03,-5.34e+03,4.67e+03,3.54e+03,1.44e+04
2307,-1.06e+02,-2.31e+03,-1.42e+03,-1.55e+03,9.52e+02,4.19e+03,8.14e+03
2308,-3.36e+03,-6.91e+03,-2.34e+03,-5.22e+03,8.04e+02,2.64e+03,1.10e+04
2309,-2.84e+03,-9.26e+02,-4.28e+03,-8.67e+02,4.30e+03,3.61e+03,1.03e+04
2310,-1.20e+04,-6.87e+03,-5.55e+03,-4.41e+03,3.56e+03,3.78e+03,1.32e+04
2311,-1.93e+04,-8.29e+03,-8.29e+03,-6.89e+03,4.62e+03,0.00e+00,1.81e+04
2312,-1.82e+04,-7.82e+03,-7.82e+03,-1.76e+03,7.00e+03,0.00e+00,1.63e+04
2313,-3.72e+04,-4.85e+03,-1.02e+04,-8.44e+03,1.20e+04,1.72e+03,3.95e+04
2314,-7.35e+03,-1.42e+03,-4.52e+03,-5.31e+03,6.57e+03,6.16e+03,1.88e+04
2315,-1.41e+04,9.14e+02,-1.38e+03,-4.20e+03,5.94e+03,3.13e+03,1.96e+04
2316,-4.82e+04,-9.56e+03,-1.49e+04,-1.05e+04,1.21e+04,1.72e+03,4.58e+04
2317,-4.87e+03,-3.62e+02,-3.46e+03,-4.48e+03,4.65e+03,6.16e+03,1.60e+04
2318,-1.46e+04,-6.25e+03,-5.64e+03,-1.57e+04,5.83e+03,7.49e+03,3.29e+04
2319,-1.53e+04,-4.00e+03,-1.45e+04,-5.12e+03,1.69e+04,5.86e+03,3.40e+04
2320,-3.78e+04,-1.45e+04,-1.99e+04,-1.18e+04,1.33e+04,6.79e+03,3.92e+04
2321,-7.21e+03,-3.08e+03,-2.47e+03,-1.46e+04,4.67e+03,7.49e+03,2.99e+04
2322,-1.01e+04,-1.75e+03,-1.23e+04,-5.05e+03,1.51e+04,5.86e+03,3.10e+04
2323,-1.06e+05,-6.34e+04,-6.86e+04,-3.92e+04,3.88e+04,1.54e+04,1.07e+05
2324,-4.12e+03,-3.93e+03,-5.57e+03,-3.77e+03,4.30e+03,6.04e+03,1.45e+04
2325,1.32e+04,5.08e+03,8.77e+02,-8.70e+03,7.69e+03,5.88e+03,2.50e+04
2326,-3.23e+04,-1.38e+04,-1.38e+04,3.07e+03,5.96e+03,0.00e+00,2.18e+04
2327,-1.82e+04,-7.82e+03,-7.82e+03,-1.76e+03,7.00e+03,0.00e+00,1.63e+04
2328,-3.56e+04,-1.06e+03,-8.59e+03,2.44e+02,1.20e+04,7.32e+02,3.78e+04
2329,-1.40e+04,-2.46e+02,-7.51e+03,1.70e+03,8.40e+03,-3.74e+03,2.01e+04
2330,-2.16e+04,-3.13e+03,-6.30e+03,-1.02e+03,8.15e+03,-2.44e+03,2.26e+04
2331,-4.66e+04,-5.77e+03,-1.33e+04,-1.84e+03,1.21e+04,7.32e+02,4.32e+04
2332,-1.42e+04,-3.25e+02,-7.59e+03,3.92e+02,7.20e+03,-3.74e+03,1.85e+04
2333,-3.79e+04,1.47e+02,-1.05e+04,1.23e+03,1.27e+04,-2.60e+03,4.08e+04
2334,-1.41e+04,-1.07e+03,-1.33e+04,-6.98e+02,1.69e+04,3.99e+03,3.26e+04
2335,-3.39e+04,-2.15e+02,-1.35e+04,2.55e+03,1.30e+04,-7.59e+02,3.73e+04
2336,-4.57e+04,-3.18e+03,-1.38e+04,-1.18e+03,1.49e+04,-2.60e+03,4.64e+04
2337,-8.80e+03,1.18e+03,-1.10e+04,-6.36e+02,1.51e+04,3.99e+03,2.94e+04
2338,-9.39e+04,-3.43e+04,-5.61e+04,9.05e+03,3.88e+04,3.60e+03,8.67e+04
2339,-1.10e+04,-8.58e+03,-2.38e+04,-1.61e+03,1.88e+04,9.32e+01,3.56e+04
2340,-2.33e+04,-7.33e+03,-1.81e+04,-4.74e+03,1.83e+04,4.82e+03,3.67e+04
2341,-3.23e+04,-1.38e+04,-1.38e+04,3.07e+03,5.96e+03,0.00e+00,2.18e+04
2342,-5.96e+03,-2.55e+03,-2.55e+03,3.97e+03,2.05e+03,0.00e+00,8.46e+03
2343,-1.17e+04,-4.52e+02,-2.96e+03,9.16e+03,3.73e+03,-4.28e+03,2.13e+04
2344,-1.40e+04,-2.59e+02,-7.52e+03,3.44e+03,8.40e+03,-3.65e+03,2.07e+04
2345,-2.10e+04,-9.32e+03,-1.33e+04,6.65e+03,7.14e+03,-1.25e+03,1.99e+04
2346,-1.47e+04,-1.75e+03,-4.26e+03,5.99e+03,3.52e+03,-4.28e+03,1.85e+04
2347,-1.42e+04,-3.38e+02,-7.60e+03,2.13e+03,7.20e+03,-3.65e+03,1.88e+04
2348,-3.76e+04,9.78e+02,-1.01e+04,7.78e+03,1.27e+04,-2.28e+03,4.31e+04
2349,-4.19e+03,9.38e+02,-3.29e+03,3.41e+03,5.16e+03,-8.16e+03,1.84e+04
2350,-8.11e+03,4.60e+03,-4.39e+02,3.37e+03,4.63e+03,-5.50e+03,1.77e+04
2351,-4.53e+04,-2.35e+03,-1.34e+04,5.37e+03,1.49e+04,-2.28e+03,4.75e+04
2352,-1.97e+03,1.89e+03,-2.33e+03,2.12e+03,4.21e+03,-8.16e+03,1.68e+04
2353,-2.39e+04,1.26e+03,-1.21e+04,1.03e+04,1.16e+04,-5.63e+03,3.59e+04
2354,-1.01e+04,-6.45e+03,-2.29e+04,1.83e+03,1.88e+04,2.52e+03,3.62e+04
2355,-3.77e+04,-4.18e+03,-1.80e+04,7.17e+03,1.50e+04,-5.77e+03,4.22e+04
2356,1.29e+04,5.53e+03,5.53e+03,7.22e+03,-2.27e+03,0.00e+00,1.50e+04
2357,-5.96e+03,-2.55e+03,-2.55e+03,3.97e+03,2.05e+03,0.00e+00,8.46e+03
2358,-1.11e+04,1.04e+03,-2.33e+03,1.14e+04,3.73e+03,-4.10e+03,2.44e+04
2359,5.55e+03,1.28e+02,2.86e+03,5.78e+03,-3.31e+03,-6.78e+03,1.71e+04
2360,8.20e+03,8.92e+03,9.81e+03,7.84e+03,-2.35e+03,-3.15e+03,1.53e+04
2361,-1.41e+04,-2.64e+02,-3.63e+03,8.21e+03,3.52e+03,-4.10e+03,2.11e+04
2362,5.49e+03,1.00e+02,2.83e+03,3.31e+03,-2.81e+03,-6.78e+03,1.47e+04
2363,1.42e+04,-6.04e+02,3.73e+03,1.15e+04,-4.89e+03,-5.54e+03,2.71e+04
2364,-4.92e+03,-7.57e+02,-4.01e+03,3.91e+03,5.16e+03,-7.83e+03,1.80e+04
2365,-1.44e+04,-6.96e+03,-8.46e+03,6.85e+03,3.28e+03,-7.14e+03,1.93e+04
2366,1.65e+04,3.59e+02,4.70e+03,8.93e+03,-5.54e+03,-5.54e+03,2.51e+04
2367,-2.69e+03,1.98e+02,-3.06e+03,2.63e+03,4.21e+03,-7.83e+03,1.63e+04
2368,-3.25e+04,-1.88e+04,-2.07e+04,1.89e+04,1.16e+04,-6.27e+03,4.19e+04
2369,3.58e+03,1.76e+03,8.17e+03,1.70e+03,-6.95e+03,-1.27e+03,1.38e+04
2370,2.49e+04,4.45e+03,7.86e+03,6.64e+03,-3.81e+03,-5.55e+03,2.51e+04
2371,1.29e+04,5.53e+03,5.53e+03,7.22e+03,-2.27e+03,0.00e+00,1.50e+04
2372,1.63e+04,6.97e+03,6.97e+03,1.74e+03,-5.73e+03,0.00e+00,1.39e+04
2373,3.13e+04,-4.79e+02,7.22e+03,7.98e+03,-1.03e+04,-2.04e+03,3.67e+04
2374,5.53e+03,7.16e+01,2.84e+03,5.25e+03,-3.31e+03,-6.95e+03,1.68e+04
2375,9.00e+03,-3.90e+03,-2.22e+03,4.88e+03,-3.60e+03,-3.72e+03,1.73e+04
2376,4.05e+04,3.46e+03,1.12e+04,6.19e+03,-9.95e+03,-2.04e+03,3.96e+04
2377,5.47e+03,4.37e+01,2.81e+03,2.77e+03,-2.81e+03,-6.95e+03,1.46e+04
2378,1.48e+04,7.43e+02,4.31e+03,1.03e+04,-4.89e+03,-5.85e+03,2.55e+04
2379,1.29e+04,8.65e+02,1.07e+04,2.57e+03,-1.45e+04,-3.65e+03,2.86e+04
2380,3.29e+04,6.55e+03,1.49e+04,7.32e+03,-1.07e+04,-5.62e+03,3.38e+04
2381,1.71e+04,1.71e+03,5.27e+03,7.66e+03,-5.54e+03,-5.85e+03,2.38e+04
2382,7.50e+03,-1.46e+03,8.41e+03,2.21e+03,-1.22e+04,-3.65e+03,2.44e+04
2383,9.04e+04,4.23e+04,5.54e+04,2.41e+04,-3.43e+04,-5.14e+03,8.48e+04
2384,4.57e+03,4.08e+03,9.17e+03,8.93e+02,-6.95e+03,-2.20e+03,1.36e+04
2385,-3.56e+03,-5.53e+02,5.12e+03,3.12e+03,-8.82e+03,-1.74e+03,1.82e+04
2386,3.71e+04,1.59e+04,1.59e+04,-3.72e+03,-7.61e+03,0.00e+00,2.58e+04
2387,1.63e+04,6.97e+03,6.97e+03,1.74e+03,-5.73e+03,0.00e+00,1.39e+04
2388,3.15e+04,2.17e+01,7.44e+03,1.11e+03,-1.03e+04,-2.28e+03,3.39e+04
2389,1.61e+04,1.22e+03,9.74e+03,-1.03e+03,-1.02e+04,2.21e+03,2.24e+04
2390,2.44e+04,4.64e+03,1.08e+04,1.49e+03,-9.14e+03,1.49e+03,2.39e+04
2391,4.07e+04,3.96e+03,1.14e+04,-6.74e+02,-9.95e+03,-2.28e+03,3.80e+04
2392,1.65e+04,1.36e+03,9.89e+03,-1.26e+03,-8.86e+03,2.21e+03,2.07e+04
2393,4.20e+04,1.01e+03,1.16e+04,-1.57e+03,-1.42e+04,2.34e+03,4.46e+04
2394,1.26e+04,8.58e+00,1.04e+04,5.60e+01,-1.45e+04,-3.86e+03,2.85e+04
2395,2.96e+04,1.54e+03,1.09e+04,-3.48e+03,-1.16e+04,-4.89e+02,3.24e+04
2396,5.30e+04,5.71e+03,1.63e+04,-6.40e+03,-1.78e+04,2.34e+03,5.42e+04
2397,7.14e+03,-2.32e+03,8.04e+03,-3.10e+02,-1.22e+04,-3.86e+03,2.44e+04
2398,7.98e+04,1.75e+04,4.48e+04,-8.91e+03,-3.43e+04,-8.85e+02,8.17e+04
2399,1.20e+04,9.93e+03,2.90e+04,1.30e+02,-2.17e+04,8.45e+03,4.42e+04
2400,2.87e+04,-2.18e+03,1.80e+04,1.32e+03,-1.98e+04,-1.61e+03,4.39e+04
2401,3.71e+04,1.59e+04,1.59e+04,-3.72e+03,-7.61e+03,0.00e+00,2.58e+04
2402,7.85e+03,3.36e+03,3.36e+03,-3.65e+03,-4.38e+03,0.00e+00,1.08e+04
2403,1.66e+04,3.82e+03,4.84e+03,-9.26e+03,-6.41e+03,4.25e+03,2.42e+04
2404,1.70e+04,3.12e+03,1.06e+04,-3.53e+03,-1.02e+04,2.97e+03,2.28e+04
2405,2.45e+04,1.17e+04,1.44e+04,-7.17e+03,-9.47e+03,1.37e+03,2.38e+04
2406,1.60e+04,3.55e+03,4.57e+03,-9.24e+03,-4.66e+03,4.25e+03,2.28e+04
2407,1.73e+04,3.26e+03,1.07e+04,-3.76e+03,-8.86e+03,2.97e+03,2.13e+04
2408,4.52e+04,8.42e+03,1.48e+04,-1.39e+04,-1.42e+04,4.89e+03,4.92e+04
2409,4.34e+03,-1.30e+02,3.11e+03,-5.57e+03,-6.45e+03,8.88e+03,2.17e+04
2410,8.82e+03,-4.75e+03,5.48e+02,-5.84e+03,-5.49e+03,5.91e+03,2.09e+04
2411,5.62e+04,1.31e+04,1.95e+04,-1.88e+04,-1.78e+04,4.89e+03,6.09e+04
2412,-8.35e+02,-2.35e+03,8.89e+02,-4.78e+03,-4.88e+03,8.88e+03,1.96e+04
2413,1.21e+04,2.47e+04,1.03e+04,-2.04e+04,-4.33e+03,9.01e+03,4.17e+04
2414,1.22e+04,1.05e+04,2.92e+04,-5.20e+03,-2.17e+04,7.77e+03,4.46e+04
2415,5.04e+04,2.57e+04,2.97e+04,-1.76e+04,-1.81e+04,1.24e+04,5.39e+04
2416,6.70e+03,2.87e+03,2.87e+03,-5.32e+03,-2.67e+03,0.00e+00,1.10e+04
2417,7.85e+03,3.36e+03,3.36e+03,-3.65e+03,-4.38e+03,0.00e+00,1.08e+04
2418,1.77e+04,6.21e+03,5.87e+03,-7.83e+03,-6.41e+03,1.99e+03,2.13e+04
2419,3.21e+03,3.59e+03,2.85e+03,-4.29e+03,-3.49e+03,3.80e+03,1.16e+04
2420,5.17e+03,-3.79e+02,-4.12e+02,-4.62e+03,-3.39e+03,1.41e+03,1.16e+04
2421,1.70e+04,5.94e+03,5.59e+03,-7.81e+03,-4.66e+03,1.99e+03,1.97e+04
2422,1.53e+03,2.87e+03,2.13e+03,-2.66e+03,-2.35e+03,3.80e+03,9.08e+03
2423,5.58e+03,1.06e+04,3.82e+03,-7.78e+03,-1.90e+03,4.21e+03,1.68e+04
2424,5.52e+03,2.62e+03,4.29e+03,-2.78e+03,-6.45e+03,6.21e+03,1.64e+04
2425,1.52e+04,1.17e+04,8.74e+03,-6.80e+03,-5.19e+03,4.80e+03,1.79e+04
2426,2.16e+03,9.11e+03,2.36e+03,-4.03e+03,-1.09e+03,4.21e+03,1.24e+04
2427,3.43e+02,4.03e+02,2.07e+03,-1.99e+03,-4.88e+03,6.21e+03,1.42e+04
2428,2.00e+03,1.11e+03,2.06e+02,-1.59e+03,-4.33e+03,1.22e+03,8.41e+03
2429,9.11e+02,1.24e+03,4.27e+02,-1.20e+03,-1.77e+02,1.57e+03,3.51e+03
2430,-6.04e+03,4.49e+03,4.88e+02,-1.29e+03,-2.18e+03,4.06e+03,1.24e+04
2431,6.70e+03,2.87e+03,2.87e+03,-5.32e+03,-2.67e+03,0.00e+00,1.10e+04
2432,2.75e+02,1.18e+02,1.18e+02,-2.28e+03,-1.55e+03,0.00e+00,4.78e+03
2433,2.79e+03,5.81e+03,2.01e+03,-4.75e+03,-1.37e+03,2.00e+03,9.88e+03
2434,2.87e+03,2.81e+03,2.51e+03,-3.18e+03,-3.49e+03,2.70e+03,9.42e+03
2435,6.09e+03,6.63e+03,5.03e+03,-4.56e+03,-2.88e+03,1.73e+03,9.92e+03
2436,1.44e+03,5.23e+03,1.43e+03,-2.49e+03,-7.13e+02,2.00e+03,6.82e+03
2437,1.19e+03,2.09e+03,1.79e+03,-1.54e+03,-2.35e+03,2.70e+03,6.79e+03
2438,3.51e+03,5.74e+03,1.75e+03,-2.98e+03,-1.90e+03,2.75e+03,8.49e+03
2439,4.31e+02,2.23e+03,7.07e+02,-1.37e+03,-4.58e+02,2.23e+03,4.90e+03
2440,-1.24e+03,2.57e+03,-5.43e+01,-1.37e+03,-1.12e+03,2.50e+03,6.29e+03
2441,8.43e+01,4.27e+03,2.82e+02,7.75e+02,-1.09e+03,2.75e+03,6.69e+03
2442,9.88e+01,2.09e+03,5.65e+02,-3.58e+02,6.85e+01,2.23e+03,4.31e+03
2443,4.35e+02,-3.05e+02,-5.09e+02,-6.48e+02,-1.61e+02,1.21e+03,2.55e+03
2444,3.16e+02,-1.48e+02,-1.69e+02,2.46e+02,-1.77e+02,1.05e+03,1.95e+03
2445,1.42e+03,4.30e+02,-4.14e+02,-2.23e+02,-2.02e+02,1.22e+03,2.69e+03
2446,2.95e+02,1.27e+02,1.27e+02,-2.24e+03,-9.16e+02,0.00e+00,4.20e+03
2447,2.75e+02,1.18e+02,1.18e+02,-2.28e+03,-1.55e+03,0.00e+00,4.78e+03
2448,1.59e+03,3.01e+03,8.11e+02,-3.37e+03,-1.37e+03,1.16e+03,6.89e+03
2449,7.38e+02,1.61e+03,6.07e+02,-1.77e+03,-1.01e+03,9.26e+02,3.98e+03
2450,-9.04e+01,-2.23e+02,-7.84e+02,-2.26e+03,-1.24e+03,2.50e+02,4.53e+03
2451,2.41e+02,2.43e+03,2.33e+02,-1.11e+03,-7.13e+02,1.16e+03,3.75e+03
2452,3.16e+02,1.43e+03,4.26e+02,-9.76e+02,-5.84e+02,9.26e+02,2.75e+03
2453,6.18e+02,2.11e+03,2.56e+02,-1.16e+03,-4.16e+02,1.26e+03,3.50e+03
2454,-3.75e+01,1.14e+03,2.39e+02,-8.50e+02,-4.58e+02,1.38e+03,3.10e+03
2455,4.67e+02,2.16e+03,5.65e+02,-1.24e+03,-4.89e+02,1.13e+03,3.45e+03
2456,3.71e+02,2.01e+03,1.50e+02,-1.87e+02,-9.43e+01,1.26e+03,2.82e+03
2457,-3.69e+02,9.94e+02,9.67e+01,1.64e+02,6.85e+01,1.38e+03,2.69e+03
2458,3.85e+02,-4.22e+02,-5.59e+02,5.31e+02,-1.61e+02,7.72e+02,1.87e+03
2459,-8.61e+01,-2.34e+02,-6.85e+02,-4.96e+01,4.31e+01,8.97e+02,1.65e+03
2460,-7.31e+01,1.03e+03,7.97e+01,2.34e+02,2.89e+01,1.44e+03,2.73e+03
2461,2.95e+02,1.27e+02,1.27e+02,-2.24e+03,-9.16e+02,0.00e+00,4.20e+03
2462,1.86e+03,7.97e+02,7.97e+02,-1.52e+03,-1.08e+03,0.00e+00,3.40e+03
2463,2.13e+03,1.20e+03,5.94e+02,-1.63e+03,-9.60e+02,4.78e+02,3.63e+03
2464,3.03e+02,5.92e+02,1.72e+02,-1.31e+03,-1.01e+03,3.33e+02,2.94e+03
2465,1.43e+03,1.42e+03,6.77e+02,-1.70e+03,-8.11e+02,2.35e+02,3.36e+03
2466,2.49e+02,3.93e+02,-2.11e+02,-5.95e+02,-5.54e+02,4.78e+02,1.72e+03
2467,-1.19e+02,4.11e+02,-8.65e+00,-5.15e+02,-5.84e+02,3.33e+02,1.54e+03
2468,2.49e+01,7.29e+02,-3.37e+02,-7.06e+02,-4.16e+02,5.66e+02,1.96e+03
2469,1.42e+02,2.90e+02,-3.41e+02,-4.34e+02,-5.97e+02,4.20e+02,1.58e+03
2470,1.34e+01,2.43e+02,-2.27e+02,-5.01e+02,-5.68e+02,4.68e+02,1.59e+03
2471,-2.22e+02,6.23e+02,-4.43e+02,2.66e+02,-9.43e+01,5.66e+02,1.47e+03
2472,-1.63e+02,1.60e+02,-4.72e+02,4.23e+01,-1.86e+02,4.20e+02,9.68e+02
2473,-5.16e+01,-8.83e+00,-6.80e+02,1.22e+02,-1.70e+02,4.04e+02,1.02e+03
2474,-6.40e+01,-1.82e+02,-6.63e+02,1.04e+02,4.31e+01,4.43e+02,9.64e+02
2475,-3.78e+02,-1.13e+01,-7.50e+02,7.85e+01,-8.59e+01,3.48e+02,9.02e+02
2476,-1.59e+02,-6.82e+01,-6.82e+01,-1.68e+03,1.04e+03,0.00e+00,3.42e+03
2477,-1.50e+03,-6.44e+02,-6.44e+02,-1.11e+03,1.08e+03,0.00e+00,2.82e+03
2478,-1.80e+03,-8.73e+02,-7.23e+02,-1.24e+03,1.11e+03,4.22e+02,3.13e+03
2479,-2.69e+02,-3.55e+02,-3.69e+02,-8.47e+02,9.74e+02,3.04e+02,2.30e+03
2480,-1.16e+03,-1.15e+03,-6.50e+02,-1.24e+03,8.97e+02,2.18e+02,2.72e+03
2481,-3.06e+02,-2.34e+02,-8.38e+01,-4.93e+02,6.70e+02,4.22e+02,1.63e+03
2482,2.80e+01,-2.28e+02,-2.42e+02,-3.93e+02,6.09e+02,3.04e+02,1.39e+03
2483,-5.15e+01,-4.65e+02,6.59e+00,-5.53e+02,4.77e+02,5.05e+02,1.60e+03
2484,-1.96e+02,-1.83e+02,-5.71e+01,-3.26e+02,6.88e+02,4.13e+02,1.51e+03
2485,-1.52e+02,-7.18e+01,-1.38e+02,-3.93e+02,6.40e+02,4.15e+02,1.49e+03
2486,1.18e+02,-3.92e+02,7.93e+01,1.22e+02,1.08e+02,5.05e+02,1.04e+03
2487,8.28e+01,-6.39e+01,6.22e+01,2.15e+01,2.71e+02,4.13e+02,8.68e+02
2488,-1.29e+01,-3.37e+01,2.87e+02,6.38e+01,2.14e+02,4.51e+02,9.25e+02
2489,3.12e+01,1.27e+02,3.35e+02,1.77e+01,6.43e+01,4.97e+02,9.09e+02
2490,3.03e+02,-3.25e+01,3.18e+02,1.31e+01,1.45e+02,3.87e+02,7.94e+02
2491,-1.59e+02,-6.82e+01,-6.82e+01,-1.68e+03,1.04e+03,0.00e+00,3.42e+03
2492,3.34e+01,1.43e+01,1.43e+01,-1.44e+03,1.33e+03,0.00e+00,3.40e+03
2493,-7.58e+02,-1.66e+03,-8.82e+02,-2.18e+03,1.41e+03,9.56e+02,4.87e+03
2494,-4.89e+02,-8.70e+02,-5.90e+02,-1.16e+03,9.74e+02,7.25e+02,2.93e+03
2495,2.71e+02,5.05e+02,5.55e+02,-1.54e+03,1.21e+03,2.23e+02,3.42e+03
2496,1.76e+01,-1.33e+03,-5.50e+02,-9.46e+02,7.37e+02,9.56e+02,2.90e+03
2497,-1.93e+02,-7.42e+02,-4.62e+02,-7.10e+02,6.09e+02,7.25e+02,2.10e+03
2498,-4.08e+02,-1.30e+03,-3.50e+02,-8.34e+02,4.77e+02,1.21e+03,2.84e+03
2499,8.70e+01,-5.52e+02,-6.47e+02,-5.47e+02,5.31e+02,1.22e+03,2.59e+03
2500,-3.02e+02,-1.48e+03,-8.58e+02,-9.06e+02,6.00e+02,1.00e+03,2.76e+03
2501,-2.38e+02,-1.22e+03,-2.77e+02,-1.59e+02,1.08e+02,1.21e+03,2.34e+03
2502,1.87e+02,-5.09e+02,-6.04e+02,-3.54e+01,6.81e+01,1.22e+03,2.25e+03
2503,-2.29e+02,5.78e+01,1.53e+02,2.10e+02,5.45e-01,9.74e+02,1.76e+03
2504,5.91e+01,1.92e+02,3.63e+02,-4.16e+01,6.43e+01,9.48e+02,1.67e+03
2505,-4.62e+01,-6.11e+02,-3.21e+02,1.10e+02,-1.66e+01,1.32e+03,2.35e+03
2506,-2.40e+03,-1.03e+03,-1.03e+03,-3.15e+03,2.69e+03,0.00e+00,7.31e+03
2507,3.34e+01,1.43e+01,1.43e+01,-1.44e+03,1.33e+03,0.00e+00,3.40e+03
2508,-1.25e+03,-2.81e+03,-1.37e+03,-2.79e+03,1.41e+03,1.72e+03,6.36e+03
2509,-1.33e+03,-1.50e+03,-2.50e+03,-1.65e+03,2.46e+03,1.79e+03,6.09e+03
2510,-3.10e+03,-3.85e+03,-3.55e+03,-2.58e+03,2.30e+03,1.28e+03,6.42e+03
2511,-4.72e+02,-2.47e+03,-1.04e+03,-1.56e+03,7.37e+02,1.72e+03,4.58e+03
2512,-5.22e+02,-1.15e+03,-2.15e+03,-8.41e+02,1.41e+03,1.79e+03,4.44e+03
2513,-1.55e+03,-2.37e+03,-1.97e+03,-1.50e+03,1.24e+03,2.05e+03,4.94e+03
2514,-5.47e+01,-8.83e+02,-7.88e+02,-7.04e+02,5.31e+02,1.68e+03,3.37e+03
2515,8.13e+02,-9.65e+02,-7.87e+02,-8.31e+02,7.09e+02,1.90e+03,4.15e+03
2516,1.49e+02,-1.64e+03,-1.24e+03,-5.85e+01,4.02e+02,2.05e+03,3.97e+03
2517,4.49e+01,-8.40e+02,-7.46e+02,-1.92e+02,6.81e+01,1.68e+03,3.04e+03
2518,-2.77e+02,-5.39e+01,1.05e+02,-2.46e+02,5.45e-01,1.41e+03,2.49e+03
2519,-2.57e+02,2.61e+02,-5.59e+02,1.11e+02,1.30e+02,1.31e+03,2.39e+03
2520,-7.04e+02,-3.15e+02,-4.55e+02,-2.05e+02,2.22e+02,1.28e+03,2.31e+03
2521,-2.40e+03,-1.03e+03,-1.03e+03,-3.15e+03,2.69e+03,0.00e+00,7.31e+03
2522,-2.42e+03,-1.04e+03,-1.04e+03,-1.84e+03,3.03e+03,0.00e+00,6.30e+03
2523,-7.87e+03,-2.92e+03,-4.78e+03,-3.96e+03,4.95e+03,1.63e+03,1.21e+04
2524,-1.44e+03,-1.74e+03,-2.61e+03,-2.13e+03,2.46e+03,2.21e+03,6.90e+03
2525,-1.38e+03,1.09e+03,2.86e+02,-2.50e+03,2.86e+03,6.88e+02,7.03e+03
2526,-5.40e+03,-1.86e+03,-3.72e+03,-3.13e+03,3.03e+03,1.63e+03,8.62e+03
2527,-6.25e+02,-1.39e+03,-2.26e+03,-1.32e+03,1.41e+03,2.21e+03,5.28e+03
2528,-1.86e+03,-3.09e+03,-2.28e+03,-2.99e+03,1.24e+03,3.18e+03,7.93e+03
2529,-2.32e+03,-1.23e+03,-4.83e+03,-9.68e+02,3.04e+03,3.10e+03,8.34e+03
2530,-5.73e+03,-4.47e+03,-5.68e+03,-2.58e+03,2.87e+03,2.79e+03,8.33e+03
2531,-1.61e+02,-2.36e+03,-1.55e+03,-1.55e+03,4.02e+02,3.18e+03,6.46e+03
2532,-6.79e+02,-5.23e+02,-4.13e+03,-6.12e+02,1.49e+03,3.10e+03,7.01e+03
2533,-1.34e+03,5.71e+02,-7.88e+02,-8.67e+02,6.43e+02,1.05e+03,3.11e+03
2534,-1.97e+02,4.01e+02,-4.99e+02,-1.86e+02,1.30e+02,1.28e+03,2.39e+03
2535,2.10e+03,-1.16e+03,-2.43e+03,-4.87e+02,2.10e+02,2.75e+03,6.31e+03
2536,-1.82e+04,-7.82e+03,-7.82e+03,-1.76e+03,7.00e+03,0.00e+00,1.63e+04
2537,-2.42e+03,-1.04e+03,-1.04e+03,-1.84e+03,3.03e+03,0.00e+00,6.30e+03
2538,-7.14e+03,-1.22e+03,-4.05e+03,-5.31e+03,4.95e+03,3.46e+03,1.48e+04
2539,-7.35e+03,-2.28e+03,-9.62e+03,-1.18e+03,7.03e+03,1.73e+03,1.43e+04
2540,-1.28e+04,-6.79e+03,-1.02e+04,-3.69e+03,6.90e+03,1.62e+03,1.48e+04
2541,-4.67e+03,-1.59e+02,-2.99e+03,-4.48e+03,3.03e+03,3.46e+03,1.18e+04
2542,-5.86e+03,-1.64e+03,-8.98e+03,-1.26e+03,4.36e+03,1.73e+03,1.06e+04
2543,-1.36e+04,-2.29e+03,-1.05e+04,-5.12e+03,6.18e+03,2.85e+03,1.79e+04
2544,-1.86e+03,-1.46e+02,-4.37e+03,-1.45e+03,3.04e+03,3.33e+03,8.99e+03
2545,-7.79e+02,2.35e+03,-4.31e+03,-2.55e+03,2.67e+03,2.89e+03,9.96e+03
2546,-8.34e+03,-3.51e+01,-8.26e+03,-5.05e+03,4.40e+03,2.85e+03,1.51e+04
2547,-2.15e+02,5.57e+02,-3.67e+03,-1.10e+03,1.49e+03,3.33e+03,7.66e+03
2548,-2.63e+03,-2.43e+03,-2.07e+03,-3.77e+03,6.43e+02,3.49e+03,8.97e+03
2549,-3.26e+03,-2.02e+03,-9.30e+03,-1.27e+03,5.41e+03,1.80e+03,1.22e+04
2550,-1.13e+04,-3.59e+03,-8.95e+03,-3.39e+03,4.46e+03,3.32e+03,1.32e+04
2551,-1.82e+04,-7.82e+03,-7.82e+03,-1.76e+03,7.00e+03,0.00e+00,1.63e+04
2552,-5.60e+03,-2.40e+03,-2.40e+03,1.05e+03,3.44e+03,0.00e+00,7.01e+03
2553,-1.35e+04,3.33e+02,-6.16e+03,1.70e+03,6.89e+03,-2.15e+03,1.75e+04
2554,-6.97e+03,-1.40e+03,-9.24e+03,-6.68e+02,7.03e+03,6.37e+02,1.41e+04
2555,-1.24e+04,-3.23e+03,-8.54e+03,1.15e+03,6.73e+03,-3.10e+02,1.43e+04
2556,-1.36e+04,2.54e+02,-6.24e+03,3.92e+02,5.69e+03,-2.15e+03,1.60e+04
2557,-5.48e+03,-7.66e+02,-8.60e+03,-7.49e+02,4.36e+03,6.37e+02,1.03e+04
2558,-1.23e+04,6.50e+02,-9.26e+03,-6.98e+02,6.18e+03,9.77e+02,1.60e+04
2559,-4.72e+03,-6.80e+02,-9.58e+03,-3.50e+02,6.31e+03,-1.22e+03,1.36e+04
2560,-9.06e+03,-2.67e+02,-9.48e+03,-1.01e+03,5.46e+03,-8.57e+01,1.32e+04
2561,-7.08e+03,2.90e+03,-7.01e+03,-6.36e+02,4.40e+03,9.77e+02,1.27e+04
2562,-2.10e+03,4.41e+02,-8.45e+03,-3.35e+02,3.31e+03,-1.22e+03,1.00e+04
2563,-1.82e+03,5.92e+02,-2.37e+03,-1.61e+03,1.08e+03,-1.77e+03,5.30e+03
2564,-3.18e+03,-1.83e+03,-9.22e+03,5.11e+02,5.41e+03,4.13e+02,1.16e+04
2565,-4.84e+03,1.09e+03,-9.47e+03,-3.12e+02,4.34e+03,-6.89e+02,1.19e+04
2566,-5.96e+03,-2.55e+03,-2.55e+03,3.97e+03,2.05e+03,0.00e+00,8.46e+03
2567,-5.60e+03,-2.40e+03,-2.40e+03,1.05e+03,3.44e+03,0.00e+00,7.01e+03
2568,-1.35e+04,3.20e+02,-6.17e+03,3.44e+03,6.89e+03,-2.06e+03,1.83e+04
2569,-2.17e+03,-2.46e+02,-2.70e+03,2.53e+03,2.14e+03,-3.89e+03,9.13e+03
2570,-3.08e+03,2.65e+03,1.38e+03,2.47e+03,2.79e+03,-1.80e+03,8.86e+03
2571,-1.36e+04,2.41e+02,-6.25e+03,2.13e+03,5.69e+03,-2.06e+03,1.64e+04
2572,-1.60e+03,-5.15e-01,-2.45e+03,1.32e+03,1.28e+03,-3.89e+03,7.75e+03
2573,-3.84e+03,1.29e+03,-2.46e+03,3.41e+03,1.99e+03,-4.92e+03,1.19e+04
2574,-4.89e+03,-1.09e+03,-9.75e+03,6.10e+02,6.31e+03,-2.56e+03,1.40e+04
2575,-1.21e+04,-2.14e+03,-9.61e+03,2.33e+03,5.30e+03,-3.97e+03,1.51e+04
2576,-1.61e+03,2.25e+03,-1.51e+03,2.12e+03,1.03e+03,-4.92e+03,1.02e+04
2577,-2.27e+03,3.16e+01,-8.63e+03,6.24e+02,3.31e+03,-2.56e+03,1.07e+04
2578,-9.04e+02,2.72e+03,-1.46e+03,1.83e+03,1.08e+03,6.66e+02,5.51e+03
2579,-7.87e+02,-3.40e+01,-1.87e+03,-7.14e+02,1.59e+03,-2.14e+02,3.43e+03
2580,3.68e+03,2.09e+02,-5.35e+03,1.00e+03,1.07e+03,-2.12e+03,9.06e+03
2581,-5.96e+03,-2.55e+03,-2.55e+03,3.97e+03,2.05e+03,0.00e+00,8.46e+03
2582,2.21e+03,9.48e+02,9.48e+02,2.14e+03,-1.35e+03,0.00e+00,4.57e+03
2583,5.37e+03,-5.91e+01,2.42e+03,5.78e+03,-2.70e+03,-3.76e+03,1.37e+04
2584,-2.21e+03,-3.39e+02,-2.74e+03,2.55e+03,2.14e+03,-4.04e+03,9.33e+03
2585,-5.14e+03,-5.60e+03,-6.91e+03,4.03e+03,1.32e+03,-2.18e+03,8.41e+03
2586,5.30e+03,-8.70e+01,2.39e+03,3.31e+03,-2.19e+03,-3.76e+03,1.06e+04
2587,-1.64e+03,-9.31e+01,-2.49e+03,1.35e+03,1.28e+03,-4.04e+03,7.99e+03
2588,-4.57e+03,-4.04e+02,-3.19e+03,3.91e+03,1.99e+03,-4.59e+03,1.16e+04
2589,2.01e+03,6.36e+02,3.82e+03,7.96e+02,-2.44e+03,-3.95e+03,8.61e+03
2590,6.90e+03,2.61e+03,3.90e+03,2.39e+03,-1.98e+03,-4.52e+03,1.02e+04
2591,-2.34e+03,5.51e+02,-2.24e+03,2.63e+03,1.03e+03,-4.59e+03,9.76e+03
2592,9.34e+02,1.74e+02,3.36e+03,3.54e+02,-1.28e+03,-3.95e+03,7.77e+03
2593,1.80e+02,-1.63e+03,2.52e+02,1.70e+03,-4.35e+02,-4.77e+02,3.66e+03
2594,-1.07e+03,-7.07e+02,-2.16e+03,-2.53e+02,1.59e+03,-3.67e+02,3.14e+03
2595,-7.03e+03,4.25e+02,5.85e+02,1.06e+03,1.24e+03,-2.79e+03,9.39e+03
2596,1.63e+04,6.97e+03,6.97e+03,1.74e+03,-5.73e+03,0.00e+00,1.39e+04
2597,2.21e+03,9.48e+02,9.48e+02,2.14e+03,-1.35e+03,0.00e+00,4.57e+03
2598,5.34e+03,-1.16e+02,2.40e+03,5.25e+03,-2.70e+03,-3.93e+03,1.32e+04
2599,6.06e+03,9.58e+02,7.66e+03,1.27e+03,-5.92e+03,-2.39e+03,1.28e+04
2600,1.17e+04,6.11e+03,1.01e+04,3.61e+03,-5.21e+03,-1.66e+03,1.24e+04
2601,5.28e+03,-1.44e+02,2.37e+03,2.77e+03,-2.19e+03,-3.93e+03,1.03e+04
2602,4.60e+03,3.31e+02,7.03e+03,6.84e+02,-3.60e+03,-2.39e+03,9.59e+03
2603,1.19e+04,-2.14e+02,8.22e+03,2.57e+03,-5.48e+03,-2.36e+03,1.55e+04
2604,1.75e+03,2.50e+01,3.56e+03,5.00e+02,-2.44e+03,-3.50e+03,8.04e+03
2605,1.23e+03,-1.71e+03,3.46e+03,1.21e+03,-2.16e+03,-3.12e+03,8.24e+03
2606,6.42e+03,-2.54e+03,5.89e+03,2.21e+03,-3.21e+03,-2.36e+03,1.18e+04
2607,6.72e+02,-4.37e+02,3.09e+03,5.87e+01,-1.28e+03,-3.50e+03,7.17e+03
2608,1.18e+03,6.88e+02,1.25e+03,8.93e+02,-4.35e+02,-1.41e+03,3.03e+03
2609,2.73e+03,1.51e+03,6.53e+03,3.39e+02,-4.60e+03,-1.29e+02,9.19e+03
2610,8.47e+03,-4.55e+02,5.34e+03,9.44e+02,-3.53e+03,-2.30e+03,1.08e+04
2611,1.63e+04,6.97e+03,6.97e+03,1.74e+03,-5.73e+03,0.00e+00,1.39e+04
2612,6.30e+03,2.70e+03,2.70e+03,-7.93e+02,-4.24e+03,0.00e+00,8.29e+03
2613,1.51e+04,1.86e+02,7.34e+03,-1.03e+03,-8.13e+03,5.85e+02,1.92e+04
2614,6.04e+03,8.98e+02,7.63e+03,1.07e+03,-5.92e+03,-1.78e+03,1.25e+04
2615,1.06e+04,2.07e+03,5.42e+03,-7.11e+02,-6.17e+03,-4.38e+02,1.31e+04
2616,1.54e+04,3.29e+02,7.48e+03,-1.26e+03,-6.76e+03,5.85e+02,1.77e+04
2617,4.58e+03,2.71e+02,7.00e+03,4.81e+02,-3.60e+03,-1.78e+03,9.16e+03
2618,1.15e+04,-1.07e+03,7.85e+03,5.60e+01,-5.48e+03,-2.56e+03,1.53e+04
2619,5.23e+03,1.39e+03,1.18e+04,-1.19e+02,-7.29e+03,6.16e+02,1.56e+04
2620,1.08e+04,-9.88e+01,1.09e+04,5.53e+02,-6.25e+03,-1.30e+03,1.56e+04
2621,6.06e+03,-3.40e+03,5.52e+03,-3.10e+02,-3.21e+03,-2.56e+03,1.16e+04
2622,2.49e+03,2.20e+02,1.06e+04,5.99e+01,-3.74e+03,6.16e+02,1.15e+04
2623,6.79e+02,-1.36e+03,2.66e+03,1.30e+02,-8.56e+02,1.78e+03,4.89e+03
2624,2.54e+03,1.06e+03,6.33e+03,-1.27e+03,-4.60e+03,5.73e+02,9.57e+03
2625,3.00e+03,2.66e+02,9.20e+03,-3.90e+02,-3.29e+03,1.22e+02,9.78e+03
2626,7.85e+03,3.36e+03,3.36e+03,-3.65e+03,-4.38e+03,0.00e+00,1.08e+04
2627,6.30e+03,2.70e+03,2.70e+03,-7.93e+02,-4.24e+03,0.00e+00,8.29e+03
2628,1.59e+04,2.09e+03,8.15e+03,-3.53e+03,-8.13e+03,1.35e+03,1.96e+04
2629,3.02e+03,9.21e+02,4.54e+03,-2.47e+03,-4.26e+03,3.04e+03,1.05e+04
2630,5.38e+03,-1.05e+03,1.45e+03,-2.04e+03,-4.49e+03,1.13e+03,1.04e+04
2631,1.63e+04,2.23e+03,8.30e+03,-3.76e+03,-6.76e+03,1.35e+03,1.83e+04
2632,1.50e+03,2.71e+02,3.89e+03,-2.00e+03,-2.44e+03,3.04e+03,8.23e+03
2633,4.67e+03,2.05e+02,3.89e+03,-5.57e+03,-3.03e+03,5.18e+03,1.48e+04
2634,5.60e+03,2.26e+03,1.22e+04,-1.53e+03,-7.29e+03,2.61e+03,1.62e+04
2635,1.37e+04,5.10e+03,1.21e+04,-4.06e+03,-6.52e+03,3.73e+03,1.68e+04
2636,-5.00e+02,-2.01e+03,1.67e+03,-4.78e+03,-1.46e+03,5.18e+03,1.29e+04
2637,2.86e+03,1.09e+03,1.10e+04,-1.35e+03,-3.74e+03,2.61e+03,1.23e+04
2638,9.28e+02,-7.77e+02,2.90e+03,-5.20e+03,-8.56e+02,1.10e+03,9.86e+03
2639,9.81e+02,-3.91e+02,2.53e+03,-2.40e+02,-1.26e+03,1.09e+03,3.86e+03
2640,-5.75e+03,-2.21e+03,5.57e+03,-2.84e+03,-9.48e+02,2.97e+03,1.24e+04
2641,7.85e+03,3.36e+03,3.36e+03,-3.65e+03,-4.38e+03,0.00e+00,1.08e+04
2642,5.22e+02,2.24e+02,2.24e+02,-1.76e+03,-2.02e+03,0.00e+00,4.64e+03
2643,3.10e+03,3.48e+03,2.59e+03,-4.29e+03,-2.59e+03,2.63e+03,9.83e+03
2644,3.36e+03,1.73e+03,4.88e+03,-1.73e+03,-4.26e+03,2.54e+03,9.50e+03
2645,6.85e+03,6.03e+03,6.43e+03,-3.58e+03,-4.07e+03,1.77e+03,9.90e+03
2646,1.42e+03,2.76e+03,1.87e+03,-2.66e+03,-1.45e+03,2.63e+03,7.04e+03
2647,1.85e+03,1.08e+03,4.23e+03,-1.26e+03,-2.44e+03,2.54e+03,7.08e+03
2648,5.85e+03,2.96e+03,5.07e+03,-2.78e+03,-3.03e+03,2.51e+03,8.74e+03
2649,4.83e+02,1.04e+03,2.12e+03,-1.03e+03,-1.12e+03,2.44e+03,5.19e+03
2650,-8.27e+02,6.25e+02,2.09e+03,-1.41e+03,-1.27e+03,2.63e+03,6.16e+03
2651,6.79e+02,7.38e+02,2.85e+03,-1.99e+03,-1.46e+03,2.51e+03,6.47e+03
2652,-1.81e+01,8.24e+02,1.91e+03,-4.24e+02,-3.40e+02,2.44e+03,4.65e+03
2653,1.05e+03,1.38e+03,7.53e+02,-1.20e+03,1.86e+01,1.82e+03,3.81e+03
2654,1.13e+03,-4.29e+01,2.68e+03,-1.36e+02,-1.26e+03,1.70e+03,4.36e+03
2655,3.72e+03,1.39e+03,2.62e+03,-1.15e+03,-1.15e+03,1.93e+03,4.80e+03
2656,2.75e+02,1.18e+02,1.18e+02,-2.28e+03,-1.55e+03,0.00e+00,4.78e+03
2657,5.22e+02,2.24e+02,2.24e+02,-1.76e+03,-2.02e+03,0.00e+00,4.64e+03
2658,2.76e+03,2.70e+03,2.25e+03,-3.18e+03,-2.59e+03,1.52e+03,7.58e+03
2659,5.46e+02,1.37e+03,1.22e+03,-1.57e+03,-1.39e+03,1.40e+03,4.43e+03
2660,-2.20e+02,-8.85e+02,-8.34e+02,-2.05e+03,-1.76e+03,4.12e+02,4.77e+03
2661,1.08e+03,1.98e+03,1.53e+03,-1.54e+03,-1.45e+03,1.52e+03,4.58e+03
2662,1.40e+02,1.19e+03,1.05e+03,-9.54e+02,-8.21e+02,1.40e+03,3.40e+03
2663,5.26e+02,2.32e+03,9.29e+02,-1.37e+03,-5.82e+02,2.11e+03,4.76e+03
2664,4.78e+02,1.03e+03,2.12e+03,-7.03e+02,-1.12e+03,2.12e+03,4.57e+03
2665,1.49e+03,2.66e+03,2.40e+03,-1.42e+03,-1.22e+03,1.84e+03,4.67e+03
2666,1.94e+02,2.18e+03,7.87e+02,-3.58e+02,-5.55e+01,2.11e+03,4.10e+03
2667,-2.36e+01,8.11e+02,1.90e+03,-9.71e+01,-3.40e+02,2.12e+03,4.09e+03
2668,4.56e+02,-7.87e+00,1.57e+02,2.46e+02,1.86e+01,1.30e+03,2.33e+03
2669,-1.06e+02,-3.54e+02,-3.45e+02,-1.04e+01,7.11e+01,1.20e+03,2.10e+03
2670,-4.91e+02,1.26e+03,1.09e+03,1.73e+02,1.47e+02,2.11e+03,4.04e+03
2671,2.75e+02,1.18e+02,1.18e+02,-2.28e+03,-1.55e+03,0.00e+00,4.78e+03
2672,9.01e+01,3.86e+01,3.86e+01,-1.13e+03,-9.76e+02,0.00e+00,2.58e+03
2673,7.74e+02,1.64e+03,6.92e+02,-1.77e+03,-9.62e+02,9.92e+02,3.99e+03
2674,3.65e+02,9.46e+02,1.04e+03,-1.27e+03,-1.39e+03,9.91e+02,3.75e+03
2675,1.26e+03,2.12e+03,1.64e+03,-1.73e+03,-1.29e+03,7.21e+02,4.00e+03
2676,3.52e+02,1.46e+03,5.12e+02,-9.76e+02,-5.39e+02,9.92e+02,2.79e+03
2677,-4.12e+01,7.72e+02,8.69e+02,-6.59e+02,-8.21e+02,9.91e+02,2.65e+03
2678,5.78e+01,1.23e+03,4.61e+02,-8.50e+02,-5.82e+02,1.25e+03,2.99e+03
2679,1.60e+02,5.84e+02,2.46e+02,-5.45e+02,-4.65e+02,9.96e+02,2.16e+03
2680,-3.35e+02,6.42e+02,2.44e+02,-6.14e+02,-5.70e+02,1.13e+03,2.57e+03
2681,-2.74e+02,1.09e+03,3.19e+02,1.64e+02,-5.55e+01,1.25e+03,2.49e+03
2682,5.35e+01,5.38e+02,2.00e+02,-1.24e+02,-1.08e+02,9.96e+02,1.80e+03
2683,8.94e+01,-5.83e+01,-2.76e+02,-4.96e+01,-8.03e+01,9.12e+02,1.62e+03
2684,-5.04e+01,-2.25e+02,-2.90e+02,5.89e+01,7.11e+01,9.28e+02,1.63e+03
2685,-1.42e+02,1.10e+02,-2.48e+02,-3.68e+01,-8.88e+00,8.06e+02,1.43e+03
2686,1.86e+03,7.97e+02,7.97e+02,-1.52e+03,-1.08e+03,0.00e+00,3.40e+03
2687,9.01e+01,3.86e+01,3.86e+01,-1.13e+03,-9.76e+02,0.00e+00,2.58e+03
2688,3.39e+02,6.28e+02,2.57e+02,-1.31e+03,-9.62e+02,3.98e+02,2.91e+03
2689,1.38e+03,5.35e+02,6.81e+02,-8.63e+02,-1.15e+03,2.48e+02,2.64e+03
2690,7.96e+02,-8.55e+01,3.26e+02,-1.11e+03,-1.24e+03,1.19e+02,2.99e+03
2691,-8.25e+01,4.48e+02,7.66e+01,-5.15e+02,-5.39e+02,3.98e+02,1.54e+03
2692,2.85e+02,6.69e+01,2.12e+02,-3.66e+02,-7.68e+02,2.48e+02,1.55e+03
2693,3.11e+02,4.60e+02,5.45e+01,-4.34e+02,-6.22e+02,4.68e+02,1.58e+03
2694,-1.16e+01,1.83e+02,7.40e+01,-3.87e+02,-4.65e+02,4.63e+02,1.33e+03
2695,-4.73e+01,4.69e+02,4.18e+01,-4.92e+02,-5.50e+02,3.87e+02,1.52e+03
2696,6.11e+00,3.29e+02,-7.62e+01,4.23e+01,-2.12e+02,4.68e+02,9.67e+02
2697,-1.18e+02,1.37e+02,2.82e+01,3.40e+01,-1.08e+02,4.63e+02,8.55e+02
2698,1.11e+02,-6.81e+00,-2.53e+02,1.04e+02,-8.03e+01,4.58e+02,8.86e+02
2699,-9.36e+01,-1.28e+02,-3.27e+02,2.50e+01,-2.14e+02,4.53e+02,8.95e+02
2700,1.42e+02,1.33e+02,-4.49e+01,9.68e+01,-1.29e+02,5.44e+02,1.00e+03
2701,-1.50e+03,-6.44e+02,-6.44e+02,-1.11e+03,1.08e+03,0.00e+00,2.82e+03
2702,-1.45e+02,-6.23e+01,-6.23e+01,-7.34e+02,8.74e+02,0.00e+00,1.98e+03
2703,-2.62e+02,-3.48e+02,-3.53e+02,-8.47e+02,9.34e+02,2.74e+02,2.24e+03
2704,-1.15e+03,-3.70e+02,-7.35e+02,-5.97e+02,1.04e+03,1.77e+02,2.21e+03
2705,-7.15e+02,7.14e+01,-4.13e+02,-7.62e+02,1.14e+03,7.29e+01,2.47e+03
2706,3.50e+01,-2.21e+02,-2.26e+02,-3.93e+02,5.69e+02,2.74e+02,1.31e+03
2707,-3.48e+02,-2.48e+01,-3.90e+02,-2.54e+02,7.50e+02,1.77e+02,1.45e+03
2708,-3.13e+02,-3.01e+02,-3.31e+02,-3.26e+02,6.58e+02,3.61e+02,1.42e+03
2709,-1.13e+02,-9.50e+01,-2.52e+02,-2.69e+02,5.03e+02,3.92e+02,1.21e+03
2710,-3.43e+01,-3.47e+02,-2.65e+02,-3.44e+02,5.72e+02,3.03e+02,1.30e+03
2711,-3.48e+01,-1.81e+02,-2.12e+02,2.15e+01,2.41e+02,3.61e+02,7.71e+02
2712,8.30e+00,-4.31e+01,-2.00e+02,-5.57e+00,1.79e+02,3.92e+02,7.69e+02
2713,-7.54e+01,2.01e+01,8.63e+01,1.77e+01,1.04e+02,4.03e+02,7.35e+02
2714,-1.14e+01,1.03e+02,4.27e+01,1.50e+00,2.72e+02,4.07e+02,8.54e+02
2715,-1.87e+02,-2.76e+01,-1.51e+02,3.57e+01,2.00e+02,4.54e+02,8.74e+02
2716,3.34e+01,1.43e+01,1.43e+01,-1.44e+03,1.33e+03,0.00e+00,3.40e+03
2717,-1.45e+02,-6.23e+01,-6.23e+01,-7.34e+02,8.74e+02,0.00e+00,1.98e+03
2718,-4.83e+02,-8.63e+02,-5.73e+02,-1.16e+03,9.34e+02,6.96e+02,2.87e+03
2719,-2.53e+02,-5.08e+02,-8.47e+02,-7.33e+02,1.09e+03,6.65e+02,2.60e+03
2720,-7.84e+02,-1.34e+03,-1.14e+03,-1.07e+03,1.08e+03,4.86e+02,2.81e+03
2721,-1.86e+02,-7.36e+02,-4.46e+02,-7.10e+02,5.69e+02,6.96e+02,2.04e+03
2722,-3.01e+01,-4.13e+02,-7.52e+02,-4.36e+02,6.96e+02,6.65e+02,1.93e+03
2723,1.30e+02,-5.09e+02,-5.45e+02,-5.47e+02,5.69e+02,9.38e+02,2.22e+03
2724,-1.66e+02,-2.18e+02,-3.04e+02,-3.77e+02,5.03e+02,7.27e+02,1.67e+03
2725,1.93e+02,-1.65e+02,-3.13e+02,-4.64e+02,5.53e+02,7.98e+02,1.92e+03
2726,2.30e+02,-4.66e+02,-5.02e+02,-3.54e+01,1.06e+02,9.38e+02,1.79e+03
2727,-4.43e+01,-1.66e+02,-2.53e+02,-1.14e+02,1.79e+02,7.27e+02,1.32e+03
2728,-4.74e+01,8.53e+01,1.14e+02,-4.16e+01,1.04e+02,8.54e+02,1.50e+03
2729,-4.59e+01,2.37e+02,-7.61e+01,-8.41e+00,4.64e+01,8.43e+02,1.49e+03
2730,1.23e+02,-6.67e+01,-1.33e+02,-7.51e+01,1.28e+02,7.07e+02,1.27e+03
2731,3.34e+01,1.43e+01,1.43e+01,-1.44e+03,1.33e+03,0.00e+00,3.40e+03
2732,-2.83e+01,-1.21e+01,-1.21e+01,-9.28e+02,1.45e+03,0.00e+00,2.98e+03
2733,-9.78e+02,-1.14e+03,-1.67e+03,-1.65e+03,1.96e+03,1.06e+03,4.85e+03
2734,-2.90e+02,-5.94e+02,-8.84e+02,-8.72e+02,1.09e+03,8.55e+02,2.88e+03
2735,3.95e+02,8.21e+02,4.91e+02,-1.19e+03,1.38e+03,2.62e+02,3.22e+03
2736,-1.66e+02,-7.94e+02,-1.32e+03,-8.41e+02,9.17e+02,1.06e+03,3.00e+03
2737,-6.68e+01,-4.98e+02,-7.88e+02,-5.75e+02,6.96e+02,8.55e+02,2.24e+03
2738,-1.12e+01,-8.39e+02,-6.87e+02,-7.04e+02,5.69e+02,1.39e+03,2.98e+03
2739,-2.04e+02,-3.10e+02,-1.51e+03,-3.61e+02,7.27e+02,1.36e+03,3.01e+03
2740,-4.17e+02,-1.18e+03,-1.55e+03,-7.09e+02,8.79e+02,1.16e+03,2.98e+03
2741,8.84e+01,-7.96e+02,-6.44e+02,-1.92e+02,1.06e+02,1.39e+03,2.58e+03
2742,-8.92e+01,-2.61e+02,-1.46e+03,-8.23e+01,1.52e+02,1.36e+03,2.70e+03
2743,-2.11e+02,3.07e+02,-4.51e+02,1.11e+02,-6.25e+01,1.08e+03,2.00e+03
2744,4.87e+01,4.57e+02,1.85e+01,-2.19e+01,4.64e+01,9.70e+02,1.74e+03
2745,9.36e+01,-3.33e+02,-9.12e+02,4.06e+01,-9.99e+01,1.44e+03,2.66e+03
2746,-2.42e+03,-1.04e+03,-1.04e+03,-1.84e+03,3.03e+03,0.00e+00,6.30e+03
2747,-2.83e+01,-1.21e+01,-1.21e+01,-9.28e+02,1.45e+03,0.00e+00,2.98e+03
2748,-1.08e+03,-1.38e+03,-1.78e+03,-2.13e+03,1.96e+03,1.48e+03,5.67e+03
2749,-1.36e+03,-7.68e+02,-3.10e+03,-7.22e+02,2.41e+03,1.36e+03,5.38e+03
2750,-2.79e+03,-2.85e+03,-3.41e+03,-1.67e+03,2.53e+03,1.04e+03,5.58e+03
2751,-2.69e+02,-1.03e+03,-1.43e+03,-1.32e+03,9.17e+02,1.48e+03,3.93e+03
2752,-7.38e+02,-5.00e+02,-2.83e+03,-4.69e+02,1.27e+03,1.36e+03,3.99e+03
2753,-1.62e+03,-5.26e+02,-3.20e+03,-9.68e+02,1.55e+03,1.59e+03,4.81e+03
2754,-1.16e+02,-1.03e+02,-1.43e+03,-3.97e+02,7.27e+02,1.35e+03,3.04e+03
2755,6.52e+02,1.34e+02,-1.65e+03,-6.77e+02,7.29e+02,1.52e+03,3.78e+03
2756,2.18e+01,1.77e+02,-2.50e+03,-6.12e+02,4.47e+00,1.59e+03,3.94e+03
2757,-6.16e-01,-5.41e+01,-1.38e+03,-1.18e+02,1.52e+02,1.35e+03,2.72e+03
2758,-1.51e+02,4.47e+02,-3.91e+02,-1.86e+02,-6.25e+01,1.05e+03,2.00e+03
2759,-3.91e+02,5.31e+02,-1.10e+03,-4.10e+01,3.58e+02,9.39e+02,2.24e+03
2760,-8.52e+02,3.34e+02,-1.13e+03,-1.89e+02,3.08e+02,9.83e+02,2.26e+03
2761,-2.42e+03,-1.04e+03,-1.04e+03,-1.84e+03,3.03e+03,0.00e+00,6.30e+03
2762,-1.59e+03,-6.83e+02,-6.83e+02,-2.60e+02,2.26e+03,0.00e+00,4.04e+03
2763,-5.51e+03,-4.41e+02,-5.33e+03,-1.18e+03,4.72e+03,9.53e+02,9.93e+03
2764,-1.19e+03,-3.59e+02,-2.93e+03,-9.79e+02,2.41e+03,1.28e+03,5.51e+03
2765,-1.50e+03,9.62e+02,-1.01e+03,-9.53e+02,2.74e+03,3.35e+02,5.54e+03
2766,-4.02e+03,1.98e+02,-4.69e+03,-1.26e+03,2.06e+03,9.53e+02,6.43e+03
2767,-5.63e+02,-9.13e+01,-2.66e+03,-7.26e+02,1.27e+03,1.28e+03,4.11e+03
2768,-1.16e+03,5.55e+02,-2.74e+03,-1.45e+03,1.55e+03,1.82e+03,5.63e+03
2769,-1.74e+03,-4.22e+02,-5.18e+03,-4.69e+02,2.45e+03,1.03e+03,6.32e+03
2770,-3.40e+03,-8.46e+02,-4.79e+03,-1.02e+03,2.38e+03,1.41e+03,6.17e+03
2771,4.85e+02,1.26e+03,-2.03e+03,-1.10e+03,4.47e+00,1.82e+03,4.74e+03
2772,-1.05e+03,-1.30e+02,-4.89e+03,-3.34e+02,9.43e+02,1.03e+03,5.03e+03
2773,4.59e+01,1.29e+03,-1.58e+03,-1.27e+03,-1.33e+02,6.95e+02,3.55e+03
2774,-2.12e+02,9.49e+02,-9.17e+02,5.06e+01,3.58e+02,5.50e+02,1.99e+03
2775,1.56e+03,1.18e+03,-2.70e+03,-7.75e+02,-2.53e+01,1.37e+03,4.91e+03
2776,-5.60e+03,-2.40e+03,-2.40e+03,1.05e+03,3.44e+03,0.00e+00,7.01e+03
2777,-1.59e+03,-6.83e+02,-6.83e+02,-2.60e+02,2.26e+03,0.00e+00,4.04e+03
2778,-5.14e+03,4.32e+02,-4.96e+03,-6.68e+02,4.72e+03,-1.38e+02,9.92e+03
2779,-2.16e+03,-4.42e+02,-4.35e+03,5.84e+02,2.90e+03,-8.95e+02,6.33e+03
2780,-3.52e+03,-3.70e+02,-2.45e+03,-8.14e+01,3.33e+03,-5.23e+01,6.40e+03
2781,-3.65e+03,1.07e+03,-4.32e+03,-7.49e+02,2.06e+03,-1.38e+02,6.35e+03
2782,-1.35e+03,-9.49e+01,-4.00e+03,2.61e+02,1.39e+03,-8.95e+02,4.51e+03
2783,-2.60e+03,1.43e+03,-4.65e+03,-3.50e+02,2.21e+03,-8.32e+02,6.77e+03
2784,-1.61e+03,-1.27e+02,-5.05e+03,7.23e+01,2.45e+03,-7.35e+01,6.10e+03
2785,-2.06e+03,1.22e+03,-4.83e+03,-2.85e+02,2.13e+03,-6.01e+02,6.52e+03
2786,1.37e+01,2.55e+03,-3.52e+03,-3.35e+02,-7.85e+02,-8.32e+02,5.68e+03
2787,-9.27e+02,1.66e+02,-4.76e+03,2.08e+02,9.43e+02,-7.35e+01,4.78e+03
2788,1.27e+02,1.48e+03,-1.50e+03,5.11e+02,-1.33e+02,-6.90e+02,2.99e+03
2789,-2.70e+02,8.18e+02,-3.48e+02,-4.70e+02,7.31e+02,-4.68e+02,2.05e+03
2790,3.55e+02,1.55e+03,-2.06e+03,3.13e+02,4.71e+01,-8.77e+02,3.57e+03
2791,-5.60e+03,-2.40e+03,-2.40e+03,1.05e+03,3.44e+03,0.00e+00,7.01e+03
2792,-4.88e+02,-2.09e+02,-2.09e+02,1.10e+03,6.37e+02,0.00e+00,2.22e+03
2793,-1.66e+03,2.67e+02,-1.50e+03,2.53e+03,1.44e+03,-2.34e+03,6.73e+03
2794,-2.20e+03,-5.33e+02,-4.39e+03,5.54e+02,2.90e+03,-1.48e+03,6.62e+03
2795,-4.77e+03,-2.98e+03,-5.36e+03,1.69e+03,2.65e+03,-1.15e+03,6.17e+03
2796,-1.09e+03,5.12e+02,-1.26e+03,1.32e+03,5.68e+02,-2.34e+03,5.06e+03
2797,-1.39e+03,-1.86e+02,-4.04e+03,2.30e+02,1.39e+03,-1.48e+03,4.92e+03
2798,-2.78e+03,1.02e+03,-4.82e+03,6.10e+02,2.21e+03,-2.17e+03,7.50e+03
2799,-4.15e+02,2.79e+02,-1.34e+03,-5.60e+01,7.16e+02,-1.97e+03,3.90e+03
2800,6.40e+02,1.32e+03,-1.72e+03,6.06e+02,5.25e+02,-2.04e+03,4.69e+03
2801,-1.62e+02,2.14e+03,-3.70e+03,6.24e+02,-7.85e+02,-2.17e+03,6.56e+03
2802,-1.67e+02,3.85e+02,-1.23e+03,-2.71e+02,2.59e+02,-1.97e+03,3.76e+03
2803,2.22e+01,7.75e+02,1.45e+01,-7.14e+02,-1.40e+02,-7.01e+02,1.91e+03
2804,-4.83e+02,3.23e+02,-5.60e+02,-3.34e+01,7.31e+02,-5.41e+02,1.79e+03
2805,-9.58e+02,1.85e+03,-2.69e+02,-4.35e+02,3.93e+02,-1.14e+03,3.37e+03
2806,2.21e+03,9.48e+02,9.48e+02,2.14e+03,-1.35e+03,0.00e+00,4.57e+03
2807,-4.88e+02,-2.09e+02,-2.09e+02,1.10e+03,6.37e+02,0.00e+00,2.22e+03
2808,-1.70e+03,1.74e+02,-1.54e+03,2.55e+03,1.44e+03,-2.50e+03,6.91e+03
2809,8.90e+02,2.59e+02,1.76e+03,1.06e+03,-1.14e+03,-2.19e+03,4.83e+03
2810,2.75e+03,3.13e+03,3.92e+03,1.94e+03,-6.79e+02,-1.26e+03,4.31e+03
2811,-1.13e+03,4.19e+02,-1.30e+03,1.35e+03,5.68e+02,-2.50e+03,5.27e+03
2812,5.66e+02,1.20e+02,1.62e+03,4.63e+02,-5.38e+02,-2.19e+03,4.20e+03
2813,1.22e+03,-1.53e+02,1.98e+03,7.96e+02,-8.53e+02,-2.81e+03,5.59e+03
2814,-6.43e+02,-2.52e+02,-1.57e+03,7.20e+01,7.16e+02,-2.26e+03,4.26e+03
2815,-2.15e+03,-8.40e+02,-1.14e+03,6.62e+02,7.37e+02,-2.56e+03,4.90e+03
2816,1.46e+02,-6.15e+02,1.52e+03,3.54e+02,3.07e+02,-2.81e+03,5.27e+03
2817,-3.95e+02,-1.46e+02,-1.46e+03,-1.43e+02,2.59e+02,-2.26e+03,4.12e+03
2818,-2.66e+02,1.02e+02,-2.74e+02,-2.53e+02,-1.40e+02,-8.55e+02,1.61e+03
2819,3.44e+02,2.05e+02,3.59e+02,-3.07e+02,-2.73e+02,-7.97e+02,1.56e+03
2820,1.16e+03,-1.08e+03,-1.13e+03,-2.80e+02,-3.65e+02,-1.73e+03,3.85e+03
2821,2.21e+03,9.48e+02,9.48e+02,2.14e+03,-1.35e+03,0.00e+00,4.57e+03
2822,1.33e+03,5.71e+02,5.71e+02,5.50e+02,-1.77e+03,0.00e+00,3.30e+03
2823,4.61e+03,-4.99e+02,4.26e+03,1.27e+03,-3.96e+03,-1.62e+03,9.18e+03
2824,8.16e+02,8.58e+01,1.68e+03,1.08e+03,-1.14e+03,-1.96e+03,4.57e+03
2825,5.17e+02,-1.82e+03,-8.42e+02,1.24e+03,-1.66e+03,-8.37e+02,4.38e+03
2826,3.14e+03,-1.13e+03,3.63e+03,6.84e+02,-1.64e+03,-1.62e+03,6.16e+03
2827,4.92e+02,-5.31e+01,1.54e+03,4.81e+02,-5.38e+02,-1.96e+03,3.88e+03
2828,9.62e+02,-7.63e+02,1.72e+03,5.00e+02,-8.53e+02,-2.36e+03,4.95e+03
2829,1.51e+03,2.09e+02,4.25e+03,1.29e+02,-2.02e+03,-1.54e+03,5.68e+03
2830,2.94e+03,-3.47e+01,3.89e+03,3.83e+02,-1.84e+03,-2.03e+03,5.96e+03
2831,-1.16e+02,-1.23e+03,1.26e+03,5.87e+01,3.07e+02,-2.36e+03,4.65e+03
2832,8.80e+02,-6.19e+01,3.98e+03,6.91e+01,-7.46e+02,-1.54e+03,4.71e+03
2833,2.42e+02,-9.83e+02,7.16e+02,3.39e+02,3.45e+02,-7.97e+02,2.22e+03
2834,-4.27e+01,-6.96e+02,-2.74e+01,-4.71e+02,-2.73e+02,-7.40e+02,1.72e+03
2835,-1.01e+03,-2.56e+02,2.12e+03,4.78e+01,2.32e+02,-1.66e+03,4.05e+03
2836,6.30e+03,2.70e+03,2.70e+03,-7.93e+02,-4.24e+03,0.00e+00,8.29e+03
2837,1.33e+03,5.71e+02,5.71e+02,5.50e+02,-1.77e+03,0.00e+00,3.30e+03
2838,4.58e+03,-5.59e+02,4.23e+03,1.07e+03,-3.96e+03,-1.01e+03,8.85e+03
2839,2.43e+03,6.84e+02,5.23e+03,-3.01e+02,-3.55e+03,8.97e+01,7.34e+03
2840,4.52e+03,1.22e+03,4.40e+03,4.70e+02,-3.60e+03,-4.70e+02,7.12e+03
2841,3.12e+03,-1.19e+03,3.60e+03,4.81e+02,-1.64e+03,-1.01e+03,5.72e+03
2842,1.48e+03,2.76e+02,4.82e+03,-2.93e+02,-1.75e+03,8.97e+01,5.11e+03
2843,2.55e+03,-1.28e+03,5.57e+03,-1.19e+02,-2.59e+03,-4.64e+02,7.50e+03
2844,1.40e+03,-6.35e+01,4.13e+03,-3.16e+02,-2.02e+03,-6.72e+02,5.25e+03
2845,1.33e+03,-1.07e+03,4.15e+03,6.89e+01,-1.79e+03,-4.20e+02,5.54e+03
2846,-1.86e+02,-2.46e+03,4.40e+03,5.99e+01,9.63e+02,-4.64e+02,6.33e+03
2847,7.63e+02,-3.35e+02,3.86e+03,-3.76e+02,-7.46e+02,-6.72e+02,4.20e+03
2848,5.11e+01,-1.43e+03,5.25e+02,-1.27e+03,3.45e+02,-9.52e+01,2.89e+03
2849,3.70e+02,-7.92e+02,6.03e+02,1.50e+02,-7.14e+02,2.39e+01,1.81e+03
2850,-3.36e+02,-2.07e+03,1.67e+03,-6.95e+02,-1.53e+02,1.31e+02,3.47e+03
2851,6.30e+03,2.70e+03,2.70e+03,-7.93e+02,-4.24e+03,0.00e+00,8.29e+03
2852,3.98e+02,1.71e+02,1.71e+02,-8.25e+02,-1.87e+03,0.00e+00,3.54e+03
2853,2.29e+03,1.95e+02,2.84e+03,-2.47e+03,-3.18e+03,1.66e+03,7.93e+03
2854,2.58e+03,1.02e+03,5.38e+03,-3.13e+02,-3.55e+03,8.25e+02,7.39e+03
2855,4.82e+03,2.87e+03,4.88e+03,-1.51e+03,-3.76e+03,9.76e+02,7.48e+03
2856,7.72e+02,-4.56e+02,2.19e+03,-2.00e+03,-1.36e+03,1.66e+03,5.58e+03
2857,1.63e+03,6.16e+02,4.97e+03,-3.05e+02,-1.75e+03,8.25e+02,5.20e+03
2858,2.93e+03,-4.17e+02,5.94e+03,-1.53e+03,-2.59e+03,1.52e+03,8.03e+03
2859,5.67e+02,-1.94e+02,2.73e+03,-2.69e+02,-1.26e+03,1.26e+03,4.08e+03
2860,-9.09e+02,-1.53e+03,3.06e+03,-1.10e+03,-1.09e+03,1.33e+03,5.58e+03
2861,1.85e+02,-1.59e+03,4.77e+03,-1.35e+03,9.63e+02,1.52e+03,6.89e+03
2862,2.29e+02,-3.39e+02,2.59e+03,-1.40e+01,-2.94e+02,1.26e+03,3.50e+03
2863,1.84e+02,-1.19e+03,6.70e+02,-2.40e+02,2.15e+02,2.90e+02,1.83e+03
2864,3.80e+02,-7.67e+02,6.14e+02,-3.48e+02,-7.14e+02,2.38e+02,1.92e+03
2865,1.29e+03,-1.25e+03,1.24e+03,-1.93e+02,-2.07e+02,4.10e+02,2.66e+03
2866,5.22e+02,2.24e+02,2.24e+02,-1.76e+03,-2.02e+03,0.00e+00,4.64e+03
2867,3.98e+02,1.71e+02,1.71e+02,-8.25e+02,-1.87e+03,0.00e+00,3.54e+03
2868,2.64e+03,1.01e+03,3.19e+03,-1.73e+03,-3.18e+03,1.17e+03,6.88e+03
2869,5.26e+02,6.34e+02,1.68e+03,-9.85e+02,-1.58e+03,1.15e+03,3.95e+03
2870,-2.67e+01,-1.07e+03,-1.63e+02,-1.28e+03,-1.96e+03,3.25e+02,4.20e+03
2871,1.12e+03,3.55e+02,2.54e+03,-1.26e+03,-1.36e+03,1.17e+03,4.25e+03
2872,1.63e+02,4.79e+02,1.52e+03,-6.21e+02,-9.13e+02,1.15e+03,3.02e+03
2873,2.17e+02,7.73e+02,1.50e+03,-1.03e+03,-8.48e+02,1.73e+03,3.94e+03
2874,7.75e+02,2.91e+02,2.94e+03,-3.31e+02,-1.26e+03,1.60e+03,4.33e+03
2875,1.46e+03,1.43e+03,2.87e+03,-8.86e+02,-1.42e+03,1.47e+03,4.12e+03
2876,-2.84e+02,5.58e+02,1.29e+03,-4.24e+02,-6.54e+01,1.73e+03,3.37e+03
2877,4.37e+02,1.46e+02,2.79e+03,-7.57e+01,-2.94e+02,1.60e+03,3.78e+03
2878,3.33e+02,-8.40e+02,8.20e+02,-1.36e+02,2.15e+02,9.00e+02,2.19e+03
2879,-3.57e+01,-8.60e+02,3.57e+02,4.26e+01,-2.80e+01,8.55e+02,1.83e+03
2880,-5.57e+02,8.21e+01,1.87e+03,-6.37e+01,2.10e+02,1.64e+03,3.60e+03
2881,5.22e+02,2.24e+02,2.24e+02,-1.76e+03,-2.02e+03,0.00e+00,4.64e+03
2882,-8.52e+01,-3.65e+01,-3.65e+01,-8.39e+02,-1.05e+03,0.00e+00,2.33e+03
2883,4.25e+02,1.25e+03,9.43e+02,-1.57e+03,-1.20e+03,1.08e+03,3.96e+03
2884,5.39e+02,6.65e+02,1.69e+03,-8.04e+02,-1.58e+03,1.06e+03,3.75e+03
2885,1.40e+03,2.04e+03,2.08e+03,-1.37e+03,-1.61e+03,7.85e+02,3.96e+03
2886,1.91e+01,1.07e+03,7.68e+02,-9.54e+02,-6.27e+02,1.08e+03,2.88e+03
2887,1.76e+02,5.09e+02,1.53e+03,-4.39e+02,-9.13e+02,1.06e+03,2.82e+03
2888,2.12e+02,7.61e+02,1.50e+03,-7.03e+02,-8.48e+02,1.41e+03,3.29e+03
2889,-2.11e+01,2.01e+02,6.18e+02,-3.73e+02,-4.85e+02,1.08e+03,2.22e+03
2890,-5.99e+02,1.37e+02,6.87e+02,-5.18e+02,-5.50e+02,1.21e+03,2.71e+03
2891,-2.89e+02,5.46e+02,1.28e+03,-9.71e+01,-6.54e+01,1.41e+03,2.80e+03
2892,-4.27e+01,1.91e+02,6.09e+02,-1.14e+02,-1.15e+02,1.08e+03,1.97e+03
2893,4.57e+01,-2.02e+02,8.32e+00,-1.04e+01,-3.90e+00,1.13e+03,1.97e+03
2894,1.65e+02,-3.90e+02,5.58e+02,4.87e+01,-2.80e+01,1.06e+03,2.02e+03
2895,5.41e+01,-5.10e+01,4.99e+02,-6.87e+01,-1.49e+02,9.59e+02,1.76e+03
2896,9.01e+01,3.86e+01,3.86e+01,-1.13e+03,-9.76e+02,0.00e+00,2.58e+03
2897,-8.52e+01,-3.65e+01,-3.65e+01,-8.39e+02,-1.05e+03,0.00e+00,2.33e+03
2898,2.45e+02,8.25e+02,7.62e+02,-1.27e+03,-1.20e+03,6.74e+02,3.29e+03
2899,3.70e+02,4.19e+02,5.02e+02,-7.16e+02,-8.45e+02,4.66e+02,2.08e+03
2900,-2.25e+02,-4.68e+02,-2.88e+02,-9.63e+02,-1.03e+03,1.52e+02,2.47e+03
2901,-1.62e+02,6.51e+02,5.88e+02,-6.59e+02,-6.27e+02,6.74e+02,2.11e+03
2902,1.58e+02,3.28e+02,4.11e+02,-4.72e+02,-5.79e+02,4.66e+02,1.54e+03
2903,2.05e+02,6.29e+02,3.50e+02,-5.45e+02,-4.95e+02,8.92e+02,2.04e+03
2904,-1.94e+01,2.05e+02,6.20e+02,-3.46e+02,-4.85e+02,8.82e+02,1.93e+03
2905,1.07e+02,8.46e+02,7.40e+02,-5.75e+02,-5.69e+02,7.06e+02,1.98e+03
2906,9.81e+01,5.83e+02,3.04e+02,-1.24e+02,-1.37e+02,8.92e+02,1.63e+03
2907,-4.10e+01,1.95e+02,6.11e+02,-8.60e+01,-1.15e+02,8.82e+02,1.65e+03
2908,1.01e+02,-7.36e+01,6.35e+01,5.89e+01,-3.90e+00,8.57e+02,1.50e+03
2909,-8.07e+00,-2.27e+02,-1.61e+02,-5.31e+01,-1.37e+02,7.81e+02,1.39e+03
2910,1.23e+02,2.03e+02,3.21e+02,1.45e+01,-3.74e+01,9.96e+02,1.74e+03
2911,9.01e+01,3.86e+01,3.86e+01,-1.13e+03,-9.76e+02,0.00e+00,2.58e+03
2912,1.21e+03,5.19e+02,5.19e+02,-7.69e+02,-9.54e+02,0.00e+00,2.23e+03
2913,1.41e+03,5.68e+02,7.58e+02,-8.63e+02,-1.07e+03,2.86e+02,2.55e+03
2914,2.76e+02,2.00e+02,4.08e+02,-5.08e+02,-8.45e+02,2.18e+02,1.76e+03
2915,8.89e+02,8.17e+02,5.35e+02,-8.15e+02,-8.31e+02,1.59e+02,2.06e+03
2916,3.18e+02,9.99e+01,2.89e+02,-3.66e+02,-6.85e+02,2.86e+02,1.45e+03
2917,6.44e+01,1.09e+02,3.18e+02,-2.64e+02,-5.79e+02,2.18e+02,1.19e+03
2918,3.31e+01,2.28e+02,1.78e+02,-3.87e+02,-4.95e+02,3.59e+02,1.27e+03
2919,2.80e+02,1.24e+02,3.25e+02,-2.21e+02,-6.85e+02,3.14e+02,1.37e+03
2920,2.31e+02,-3.13e+01,3.41e+02,-2.90e+02,-6.51e+02,2.87e+02,1.37e+03
2921,-7.37e+01,1.82e+02,1.32e+02,3.40e+01,-1.37e+02,3.59e+02,7.09e+02
2922,1.72e+01,1.17e+01,2.12e+02,1.82e+01,-3.09e+02,3.14e+02,7.89e+02
2923,3.87e+01,4.60e+00,-1.85e+01,2.50e+01,-2.30e+02,3.90e+02,7.86e+02
2924,4.38e+01,-1.06e+02,-1.09e+02,-1.91e+01,-1.37e+02,4.45e+02,8.21e+02
2925,-2.05e+02,5.01e+01,-4.25e+00,-6.14e+00,-1.80e+02,3.17e+02,6.74e+02
2926,-1.45e+02,-6.23e+01,-6.23e+01,-7.34e+02,8.74e+02,0.00e+00,1.98e+03
2927,-1.19e+03,-5.10e+02,-5.10e+02,-5.71e+02,8.29e+02,0.00e+00,1.87e+03
2928,-1.14e+03,-3.59e+02,-7.09e+02,-5.97e+02,9.29e+02,1.49e+02,2.05e+03
2929,-4.71e+02,-1.54e+02,-3.44e+02,-3.49e+02,7.33e+02,1.48e+02,1.46e+03
2930,-7.98e+02,-5.53e+02,-4.54e+02,-5.28e+02,7.27e+02,8.68e+01,1.59e+03
2931,-3.37e+02,-1.40e+01,-3.65e+02,-2.54e+02,6.35e+02,1.49e+02,1.26e+03
2932,-2.34e+02,-5.21e+01,-2.42e+02,-2.01e+02,5.13e+02,1.48e+02,1.01e+03
2933,-8.95e+01,-7.17e+01,-1.97e+02,-2.69e+02,4.66e+02,1.99e+02,1.00e+03
2934,-4.92e+02,-1.39e+02,-4.18e+02,-1.63e+02,6.17e+02,1.83e+02,1.19e+03
2935,-3.69e+02,2.46e+01,-3.91e+02,-2.39e+02,6.11e+02,1.60e+02,1.24e+03
2936,3.16e+01,-1.98e+01,-1.45e+02,-5.57e+00,1.41e+02,1.99e+02,4.51e+02
2937,-1.52e+02,6.04e+00,-2.72e+02,6.94e+00,2.82e+02,1.83e+02,6.31e+02
2938,-5.02e+01,6.43e+01,-4.80e+01,1.50e+00,1.95e+02,2.43e+02,5.52e+02
2939,-1.07e+02,1.23e+02,3.72e+01,-1.45e+01,1.50e+02,2.95e+02,6.08e+02
2940,7.00e+01,-7.68e+00,-8.23e+01,-2.16e+00,1.69e+02,1.87e+02,4.56e+02
2941,-1.45e+02,-6.23e+01,-6.23e+01,-7.34e+02,8.74e+02,0.00e+00,1.98e+03
2942,-1.57e+02,-6.75e+01,-6.75e+01,-5.18e+02,8.59e+02,0.00e+00,1.74e+03
2943,-1.32e+02,-3.87e+02,-5.65e+02,-7.33e+02,9.61e+02,3.94e+02,2.23e+03
2944,-5.10e+02,-2.44e+02,-3.83e+02,-4.63e+02,7.33e+02,2.19e+02,1.57e+03
2945,-2.56e+01,2.41e+02,4.85e+01,-6.28e+02,8.65e+02,8.39e+01,1.87e+03
2946,9.07e+01,-2.92e+02,-4.70e+02,-4.36e+02,5.68e+02,3.94e+02,1.50e+03
2947,-2.73e+02,-1.43e+02,-2.81e+02,-3.16e+02,5.13e+02,2.19e+02,1.12e+03
2948,-1.42e+02,-1.95e+02,-2.50e+02,-3.77e+02,4.66e+02,5.34e+02,1.39e+03
2949,-2.31e+02,-7.34e+01,-4.63e+02,-2.40e+02,4.61e+02,5.30e+02,1.33e+03
2950,-1.84e+02,-4.48e+02,-5.51e+02,-3.48e+02,5.25e+02,3.94e+02,1.33e+03
2951,-2.10e+01,-1.43e+02,-1.98e+02,-1.14e+02,1.41e+02,5.34e+02,9.89e+02
2952,-1.07e+02,-2.04e+01,-4.10e+02,-7.61e+01,1.45e+02,5.30e+02,1.02e+03
2953,-4.14e+01,2.41e+02,-6.54e+01,-8.41e+00,6.86e+01,5.86e+02,1.06e+03
2954,-3.67e+01,2.86e+02,1.07e+02,-7.98e+01,1.50e+02,5.28e+02,1.00e+03
2955,-1.23e+02,9.32e+01,-1.58e+02,-5.57e+01,8.24e+01,6.32e+02,1.13e+03
2956,-2.83e+01,-1.21e+01,-1.21e+01,-9.28e+02,1.45e+03,0.00e+00,2.98e+03
2957,-1.57e+02,-6.75e+01,-6.75e+01,-5.18e+02,8.59e+02,0.00e+00,1.74e+03
2958,-1.69e+02,-4.73e+02,-6.02e+02,-8.72e+02,9.61e+02,5.84e+02,2.50e+03
2959,-4.69e+02,-2.90e+02,-9.71e+02,-4.44e+02,1.08e+03,6.03e+02,2.36e+03
2960,-7.18e+02,-1.01e+03,-1.16e+03,-7.08e+02,1.14e+03,4.17e+02,2.46e+03
2961,5.41e+01,-3.77e+02,-5.06e+02,-5.75e+02,5.68e+02,5.84e+02,1.80e+03
2962,-2.39e+02,-1.92e+02,-8.73e+02,-2.80e+02,6.63e+02,6.03e+02,1.75e+03
2963,9.42e+01,-1.17e+01,-8.18e+02,-3.61e+02,6.25e+02,8.15e+02,2.07e+03
2964,-1.75e+02,5.66e+01,-4.07e+02,-2.73e+02,4.61e+02,6.24e+02,1.48e+03
2965,2.06e+02,1.29e+02,-4.42e+02,-3.78e+02,5.00e+02,7.02e+02,1.74e+03
2966,2.09e+02,3.76e+01,-7.69e+02,-8.23e+01,5.02e+01,8.15e+02,1.69e+03
2967,-5.16e+01,1.10e+02,-3.54e+02,-1.09e+02,1.45e+02,6.24e+02,1.20e+03
2968,5.33e+01,4.62e+02,2.92e+01,-2.19e+01,6.86e+01,7.13e+02,1.31e+03
2969,-1.30e+02,4.20e+02,-3.16e+02,-1.85e+01,6.40e+01,6.51e+02,1.31e+03
2970,6.53e+01,2.96e+02,-2.82e+02,-3.64e+01,1.41e+02,5.82e+02,1.15e+03
2971,-2.83e+01,-1.21e+01,-1.21e+01,-9.28e+02,1.45e+03,0.00e+00,2.98e+03
2972,-1.96e+02,-8.40e+01,-8.40e+01,-3.40e+02,1.26e+03,0.00e+00,2.26e+03
2973,-7.44e+02,-1.49e+02,-1.66e+03,-7.22e+02,1.92e+03,6.43e+02,3.94e+03
2974,-4.09e+02,-1.52e+02,-9.12e+02,-4.70e+02,1.08e+03,5.21e+02,2.33e+03
2975,1.34e+02,6.89e+02,3.68e+01,-6.54e+02,1.33e+03,1.64e+02,2.66e+03
2976,-1.19e+02,1.19e+02,-1.39e+03,-4.69e+02,7.73e+02,6.43e+02,2.38e+03
2977,-1.80e+02,-5.31e+01,-8.13e+02,-3.06e+02,6.63e+02,5.21e+02,1.71e+03
2978,1.83e+02,1.95e+02,-7.29e+02,-3.97e+02,6.25e+02,8.09e+02,2.11e+03
2979,-4.56e+02,1.27e+02,-1.44e+03,-1.45e+02,6.92e+02,7.48e+02,2.25e+03
2980,-3.54e+02,-2.25e+02,-1.32e+03,-2.83e+02,8.38e+02,6.62e+02,2.17e+03
2981,2.98e+02,2.44e+02,-6.80e+02,-1.18e+02,5.02e+01,8.09e+02,1.71e+03
2982,-3.05e+02,1.92e+02,-1.37e+03,-4.44e+01,1.49e+02,7.48e+02,1.91e+03
2983,-9.03e+01,8.32e+02,-3.94e+02,-4.10e+01,-9.71e+01,5.33e+02,1.45e+03
2984,-3.45e+00,7.15e+02,-1.90e+02,-1.32e+01,6.40e+01,5.29e+02,1.24e+03
2985,1.21e+02,3.63e+02,-8.60e+02,-6.45e+01,-7.55e+01,8.33e+02,1.84e+03
2986,-1.59e+03,-6.83e+02,-6.83e+02,-2.60e+02,2.26e+03,0.00e+00,4.04e+03
2987,-1.96e+02,-8.40e+01,-8.40e+01,-3.40e+02,1.26e+03,0.00e+00,2.26e+03
2988,-5.69e+02,2.60e+02,-1.48e+03,-9.79e+02,1.92e+03,5.69e+02,4.14e+03
2989,-1.01e+03,-2.22e+02,-2.25e+03,-3.04e+01,1.68e+03,3.35e+02,3.46e+03
2990,-1.47e+03,-8.93e+02,-1.79e+03,-4.66e+02,1.92e+03,3.84e+02,3.58e+03
2991,5.62e+01,5.28e+02,-1.21e+03,-7.26e+02,7.73e+02,5.69e+02,2.60e+03
2992,-6.53e+02,-6.78e+01,-2.10e+03,-5.30e+01,8.41e+02,3.35e+02,2.40e+03
2993,-4.89e+02,8.25e+02,-2.27e+03,-4.69e+02,1.08e+03,5.74e+02,3.52e+03
2994,-3.35e+02,4.09e+02,-1.32e+03,-1.02e+02,6.92e+02,4.65e+02,2.09e+03
2995,3.99e+02,9.30e+02,-1.46e+03,-4.60e+02,6.51e+02,5.33e+02,2.73e+03
2996,1.94e+02,1.12e+03,-1.98e+03,-3.34e+02,-4.19e+02,5.74e+02,3.07e+03
2997,-1.84e+02,4.73e+02,-1.25e+03,-1.82e+00,1.49e+02,4.65e+02,1.73e+03
2998,8.85e+01,1.25e+03,-2.15e+02,5.06e+01,-9.71e+01,1.44e+02,1.38e+03
2999,-1.34e+02,7.15e+02,-4.02e+02,-1.04e+02,1.92e+02,8.11e-01,1.08e+03
3000,-1.84e+02,1.13e+03,-5.26e+02,6.95e+01,3.89e+01,9.20e+01,1.53e+03
3001,-1.59e+03,-6.83e+02,-6.83e+02,-2.60e+02,2.26e+03,0.00e+00,4.04e+03
3002,-3.06e+02,-1.31e+02,-1.31e+02,3.99e+02,9.69e+02,0.00e+00,1.82e+03
3003,-1.14e+03,5.82e+02,-1.96e+03,5.84e+02,1.96e+03,-4.16e+02,4.25e+03
3004,-9.62e+02,-1.05e+02,-2.20e+03,2.38e+01,1.68e+03,-1.25e+02,3.44e+03
3005,-1.34e+03,-2.50e+02,-1.87e+03,2.23e+02,1.77e+03,-2.62e+02,3.43e+03
3006,-3.29e+02,9.29e+02,-1.61e+03,2.61e+02,4.48e+02,-4.16e+02,2.48e+03
3007,-6.03e+02,4.86e+01,-2.05e+03,1.11e+00,8.41e+02,-1.25e+02,2.37e+03
3008,-3.63e+02,1.12e+03,-2.14e+03,7.23e+01,1.08e+03,-5.31e+02,3.52e+03
3009,-3.87e+02,4.14e+02,-1.38e+03,1.81e+01,6.43e+02,-5.11e+02,2.11e+03
3010,5.49e+01,9.56e+02,-1.25e+03,2.66e+02,6.44e+02,-4.31e+02,2.39e+03
3011,3.20e+02,1.41e+03,-1.85e+03,2.08e+02,-4.19e+02,-5.31e+02,3.13e+03
3012,-2.09e+02,4.90e+02,-1.31e+03,-6.24e+01,1.44e+02,-5.11e+02,1.82e+03
3013,-2.49e+01,1.06e+03,2.25e+02,-4.70e+02,-3.15e+02,-5.77e+02,1.71e+03
3014,-1.60e+02,6.53e+02,-4.29e+02,7.46e+01,1.92e+02,-3.22e+02,1.18e+03
3015,1.19e+02,1.08e+03,-7.60e+02,-2.08e+02,2.22e+01,-2.82e+02,1.70e+03
3016,-4.88e+02,-2.09e+02,-2.09e+02,1.10e+03,6.37e+02,0.00e+00,2.22e+03
3017,-3.06e+02,-1.31e+02,-1.31e+02,3.99e+02,9.69e+02,0.00e+00,1.82e+03
3018,-1.18e+03,4.91e+02,-2.00e+03,5.54e+02,1.96e+03,-9.98e+02,4.49e+03
3019,-2.39e+02,9.33e+01,-6.09e+02,6.05e+02,4.65e+02,-9.48e+02,2.19e+03
3020,2.51e+02,1.07e+03,7.54e+02,7.30e+02,8.25e+02,-4.32e+02,2.17e+03
3021,-3.68e+02,8.38e+02,-1.65e+03,2.30e+02,4.48e+02,-9.98e+02,2.90e+03
3022,-1.36e+02,1.37e+02,-5.65e+02,2.62e+02,2.08e+02,-9.48e+02,1.85e+03
3023,-5.97e+01,6.34e+02,-5.10e+02,-5.60e+01,2.90e+02,-1.19e+03,2.34e+03
3024,-5.03e+02,1.43e+02,-1.50e+03,1.08e+02,6.43e+02,-8.89e+02,2.39e+03
3025,-4.42e+02,4.67e+02,-1.36e+03,1.19e+01,6.30e+02,-1.00e+03,2.59e+03
3026,1.88e+02,7.40e+02,-4.03e+02,-2.71e+02,-1.67e+02,-1.19e+03,2.35e+03
3027,-3.26e+02,2.19e+02,-1.42e+03,2.77e+01,1.44e+02,-8.89e+02,2.13e+03
3028,-2.37e+02,5.69e+02,1.31e+01,-3.34e+01,-3.15e+02,-6.51e+02,1.44e+03
3029,8.91e+01,4.86e+02,8.76e+01,-1.53e+02,5.39e+01,-7.28e+02,1.35e+03
3030,-1.84e+01,1.78e+02,-7.06e+02,-9.92e+01,-1.83e+02,-1.00e+03,1.94e+03
3031,-4.88e+02,-2.09e+02,-2.09e+02,1.10e+03,6.37e+02,0.00e+00,2.22e+03
3032,1.11e+02,4.76e+01,4.76e+01,6.44e+02,-3.70e+02,0.00e+00,1.29e+03
3033,4.87e+02,-1.44e+02,8.17e+02,1.06e+03,-7.65e+02,-1.29e+03,3.30e+03
3034,-3.34e+02,-1.28e+02,-7.04e+02,6.13e+02,4.65e+02,-1.08e+03,2.35e+03
3035,-1.11e+03,-1.38e+03,-1.84e+03,9.45e+02,2.05e+02,-6.11e+02,2.08e+03
3036,1.63e+02,-2.83e+02,6.78e+02,4.63e+02,-1.67e+02,-1.29e+03,2.53e+03
3037,-2.31e+02,-8.41e+01,-6.60e+02,2.70e+02,2.08e+02,-1.08e+03,2.02e+03
3038,-2.87e+02,1.03e+02,-7.37e+02,7.20e+01,2.90e+02,-1.47e+03,2.69e+03
3039,2.68e+02,1.04e+02,6.77e+02,1.16e+02,-2.40e+02,-1.21e+03,2.21e+03
3040,4.52e+02,1.51e+02,4.95e+02,2.09e+02,-2.83e+02,-1.29e+03,2.34e+03
3041,-3.92e+01,2.09e+02,-6.31e+02,-1.43e+02,-1.67e+02,-1.47e+03,2.67e+03
3042,2.03e+02,7.64e+01,6.49e+02,-4.07e+01,-4.43e+01,-1.21e+03,2.17e+03
3043,2.51e+02,1.12e+02,1.43e+02,-3.07e+02,1.40e+02,-8.29e+02,1.56e+03
3044,-1.61e+02,-9.73e+01,-1.62e+02,-1.01e+02,5.39e+01,-7.86e+02,1.38e+03
3045,6.43e+01,5.90e+02,4.73e+02,-2.44e+02,1.66e+02,-1.09e+03,2.01e+03
3046,1.33e+03,5.71e+02,5.71e+02,5.50e+02,-1.77e+03,0.00e+00,3.30e+03
3047,1.11e+02,4.76e+01,4.76e+01,6.44e+02,-3.70e+02,0.00e+00,1.29e+03
3048,4.13e+02,-3.17e+02,7.43e+02,1.08e+03,-7.65e+02,-1.07e+03,3.09e+03
3049,7.99e+02,1.13e+02,1.85e+03,3.71e+02,-1.29e+03,-7.44e+02,3.06e+03
3050,1.54e+03,1.05e+03,2.29e+03,7.42e+02,-1.21e+03,-5.43e+02,2.85e+03
3051,8.87e+01,-4.56e+02,6.04e+02,4.81e+02,-1.67e+02,-1.07e+03,2.25e+03
3052,5.19e+02,-6.66e+00,1.73e+03,1.67e+02,-5.92e+02,-7.44e+02,2.27e+03
3053,4.83e+02,-8.21e+02,1.85e+03,1.29e+02,-8.20e+02,-1.20e+03,3.42e+03
3054,7.41e+01,-3.48e+02,4.83e+02,8.07e+01,-2.40e+02,-1.05e+03,2.01e+03
3055,-3.15e+02,-7.38e+02,5.67e+02,3.14e+02,-1.88e+02,-1.06e+03,2.26e+03
3056,-1.50e+02,-1.09e+03,1.57e+03,6.91e+01,4.58e+02,-1.20e+03,3.23e+03
3057,8.61e+00,-3.76e+02,4.55e+02,-7.58e+01,-4.43e+01,-1.05e+03,1.97e+03
3058,-1.35e+02,-7.89e+02,-2.44e+02,-4.71e+02,1.40e+02,-7.72e+02,1.70e+03
3059,1.67e+02,-3.68e+02,2.47e+02,4.71e+00,-1.39e+02,-5.96e+02,1.21e+03
3060,-9.28e+01,-1.12e+03,9.32e+01,-2.80e+02,-6.73e+01,-7.79e+02,1.83e+03
3061,1.33e+03,5.71e+02,5.71e+02,5.50e+02,-1.77e+03,0.00e+00,3.30e+03
3062,3.21e+02,1.38e+02,1.38e+02,-1.84e+01,-1.27e+03,0.00e+00,2.20e+03
3063,1.20e+03,-5.55e+02,2.34e+03,-3.01e+02,-2.39e+03,-2.60e+02,4.90e+03
3064,7.56e+02,1.32e+01,1.80e+03,3.39e+02,-1.29e+03,-3.70e+02,2.86e+03
3065,7.85e+02,-1.61e+02,7.31e+02,1.46e+02,-1.64e+03,-2.76e+01,2.99e+03
3066,2.45e+02,-9.63e+02,1.93e+03,-2.93e+02,-5.98e+02,-2.60e+02,2.81e+03
3067,4.76e+02,-1.07e+02,1.68e+03,1.34e+02,-5.92e+02,-3.70e+02,2.00e+03
3068,3.66e+02,-1.09e+03,1.73e+03,-3.16e+02,-8.20e+02,-3.27e+02,2.93e+03
3069,4.73e+02,-3.50e+02,1.74e+03,3.22e+01,-7.72e+02,-1.50e+02,2.27e+03
3070,-1.06e-01,-1.02e+03,1.68e+03,-2.86e+02,-7.20e+02,-2.34e+02,2.75e+03
3071,-2.67e+02,-1.36e+03,1.46e+03,-3.76e+02,4.58e+02,-3.27e+02,2.73e+03
3072,2.92e+02,-4.27e+02,1.66e+03,4.99e+01,-1.59e+02,-1.50e+02,1.88e+03
3073,9.14e+01,-1.07e+03,-4.68e+01,1.50e+02,3.50e+02,-2.38e+02,1.35e+03
3074,1.83e+01,-7.16e+02,9.78e+01,-1.61e+02,-1.39e+02,-3.89e+02,1.09e+03
3075,6.59e+01,-9.01e+02,6.85e+02,3.56e+01,1.27e+02,-4.87e+02,1.64e+03
3076,3.98e+02,1.71e+02,1.71e+02,-8.25e+02,-1.87e+03,0.00e+00,3.54e+03
3077,3.21e+02,1.38e+02,1.38e+02,-1.84e+01,-1.27e+03,0.00e+00,2.20e+03
3078,1.34e+03,-2.14e+02,2.49e+03,-3.13e+02,-2.39e+03,4.75e+02,4.86e+03
3079,5.55e+02,2.03e+01,1.44e+03,-3.25e+02,-1.34e+03,4.38e+02,2.79e+03
3080,2.31e+02,-6.47e+02,5.25e+02,-4.12e+02,-1.57e+03,8.61e+01,3.01e+03
3081,3.90e+02,-6.22e+02,2.08e+03,-3.05e+02,-5.98e+02,4.75e+02,2.76e+03
3082,2.81e+02,-9.72e+01,1.32e+03,-2.05e+02,-7.13e+02,4.38e+02,1.96e+03
3083,-7.34e+01,-8.34e+02,1.24e+03,-2.69e+02,-7.90e+02,4.72e+02,2.46e+03
3084,5.08e+02,-2.69e+02,1.77e+03,-7.88e+01,-7.72e+02,3.10e+02,2.30e+03
3085,3.92e+02,-3.79e+02,1.50e+03,-8.02e+01,-8.65e+02,3.85e+02,2.32e+03
3086,-4.11e+02,-9.79e+02,1.09e+03,-1.40e+01,1.74e+02,4.72e+02,2.05e+03
3087,3.27e+02,-3.46e+02,1.69e+03,-6.12e+01,-1.59e+02,3.10e+02,1.90e+03
3088,1.02e+02,-1.05e+03,-3.63e+01,-3.48e+02,3.50e+02,-2.44e+01,1.38e+03
3089,4.61e+01,-8.07e+02,2.83e+02,5.00e+01,-7.93e+01,1.39e+02,1.03e+03
3090,-2.87e+02,-7.08e+02,1.03e+03,-1.50e+02,1.10e+02,4.44e+02,1.78e+03
3091,3.98e+02,1.71e+02,1.71e+02,-8.25e+02,-1.87e+03,0.00e+00,3.54e+03
3092,9.40e+01,4.03e+01,4.03e+01,-4.80e+02,-1.04e+03,0.00e+00,1.98e+03
3093,2.19e+02,3.28e+02,9.60e+02,-9.85e+02,-1.33e+03,6.82e+02,3.18e+03
3094,6.46e+02,2.33e+02,1.53e+03,-3.01e+02,-1.34e+03,6.52e+02,2.87e+03
3095,9.80e+02,1.13e+03,1.53e+03,-6.89e+02,-1.49e+03,4.89e+02,3.00e+03
3096,-1.43e+02,1.72e+02,8.05e+02,-6.21e+02,-6.59e+02,6.82e+02,2.13e+03
3097,3.72e+02,1.15e+02,1.41e+03,-1.81e+02,-7.13e+02,6.52e+02,2.08e+03
3098,1.35e+02,-3.49e+02,1.45e+03,-3.31e+02,-7.90e+02,8.09e+02,2.60e+03
3099,1.71e+02,-2.38e+02,7.84e+02,-1.99e+02,-5.14e+02,6.52e+02,1.73e+03
3100,-3.07e+02,-3.73e+02,9.15e+02,-3.66e+02,-5.21e+02,7.61e+02,2.13e+03
3101,-2.03e+02,-4.94e+02,1.30e+03,-7.57e+01,1.74e+02,8.09e+02,2.20e+03
3102,7.86e+01,-2.77e+02,7.44e+02,-4.83e+01,-1.13e+02,6.52e+02,1.46e+03
3103,-1.40e+02,-9.64e+02,1.14e+02,4.26e+01,-3.55e+00,4.95e+02,1.30e+03
3104,1.31e+02,-6.10e+02,3.67e+02,-2.45e+01,-7.93e+01,3.94e+02,1.13e+03
3105,-1.93e+01,-8.10e+02,3.37e+02,6.85e+01,-7.09e+01,4.22e+02,1.26e+03
3106,-8.52e+01,-3.65e+01,-3.65e+01,-8.39e+02,-1.05e+03,0.00e+00,2.33e+03
3107,9.40e+01,4.03e+01,4.03e+01,-4.80e+02,-1.04e+03,0.00e+00,1.98e+03
3108,2.33e+02,3.58e+02,9.73e+02,-8.04e+02,-1.33e+03,5.94e+02,2.96e+03
3109,3.44e+02,2.23e+02,5.23e+02,-4.81e+02,-8.28e+02,4.10e+02,1.82e+03
3110,-2.12e+02,-5.14e+02,-2.04e+02,-6.81e+02,-1.02e+03,1.44e+02,2.16e+03
3111,-1.30e+02,2.03e+02,8.18e+02,-4.39e+02,-6.59e+02,5.94e+02,1.91e+03
3112,1.52e+02,1.40e+02,4.41e+02,-3.40e+02,-5.53e+02,4.10e+02,1.36e+03
3113,-1.28e+02,9.35e+01,3.68e+02,-3.73e+02,-4.87e+02,7.61e+02,1.75e+03
3114,2.74e+02,2.78e+00,8.87e+02,-2.07e+02,-5.14e+02,7.38e+02,1.78e+03
3115,1.25e+02,4.03e+02,8.66e+02,-3.31e+02,-6.42e+02,6.02e+02,1.75e+03
3116,-1.50e+02,8.42e+01,3.59e+02,-1.14e+02,-1.17e+02,7.61e+02,1.42e+03
3117,1.82e+02,-3.69e+01,8.47e+02,-5.67e+01,-1.13e+02,7.38e+02,1.52e+03
3118,6.12e+01,-4.94e+02,3.15e+02,4.87e+01,-3.55e+00,7.01e+02,1.41e+03
3119,-1.65e+00,-4.99e+02,1.97e+00,-6.07e+01,-8.35e+01,6.30e+02,1.21e+03
3120,5.14e+01,-1.53e+02,4.78e+02,-3.61e+01,1.88e+01,8.39e+02,1.56e+03
3121,-8.52e+01,-3.65e+01,-3.65e+01,-8.39e+02,-1.05e+03,0.00e+00,2.33e+03
3122,3.52e+02,1.51e+02,1.51e+02,-4.93e+02,-7.54e+02,0.00e+00,1.57e+03
3123,3.40e+02,3.89e+02,4.32e+02,-7.16e+02,-7.99e+02,3.92e+02,1.98e+03
3124,3.71e+02,2.85e+02,5.50e+02,-4.52e+02,-8.28e+02,3.95e+02,1.79e+03
3125,5.34e+02,7.46e+02,7.04e+02,-6.14e+02,-8.50e+02,2.67e+02,1.88e+03
3126,1.28e+02,2.98e+02,3.41e+02,-4.72e+02,-5.34e+02,3.92e+02,1.42e+03
3127,1.79e+02,2.02e+02,4.67e+02,-3.11e+02,-5.53e+02,3.95e+02,1.32e+03
3128,-1.27e+02,9.74e+01,3.70e+02,-3.46e+02,-4.87e+02,5.67e+02,1.49e+03
3129,3.39e+02,7.24e+01,2.68e+02,-2.82e+02,-4.69e+02,4.25e+02,1.22e+03
3130,4.47e+01,-3.11e+00,2.69e+02,-3.64e+02,-5.05e+02,4.73e+02,1.38e+03
3131,-1.48e+02,8.82e+01,3.61e+02,-8.60e+01,-1.17e+02,5.67e+02,1.10e+03
3132,1.16e+02,-2.30e+01,1.73e+02,-1.08e+02,-1.85e+02,4.25e+02,8.43e+02
3133,1.20e+01,-2.07e+02,-1.14e+02,-5.31e+01,-1.04e+02,5.73e+02,1.03e+03
3134,9.54e+01,-2.73e+02,9.90e+01,-3.08e+01,-8.35e+01,5.53e+02,1.04e+03
3135,-6.17e+01,-5.76e+01,1.39e+02,-7.15e+01,-1.48e+02,4.48e+02,8.49e+02
3136,1.21e+03,5.19e+02,5.19e+02,-7.69e+02,-9.54e+02,0.00e+00,2.23e+03
3137,3.52e+02,1.51e+02,1.51e+02,-4.93e+02,-7.54e+02,0.00e+00,1.57e+03
3138,2.46e+02,1.70e+02,3.38e+02,-5.08e+02,-7.99e+02,1.43e+02,1.66e+03
3139,1.15e+03,3.11e+02,6.40e+02,-4.04e+02,-8.72e+02,5.34e+01,1.82e+03
3140,7.35e+02,5.82e+01,4.54e+02,-5.29e+02,-9.57e+02,3.16e+01,1.98e+03
3141,3.45e+01,7.94e+01,2.48e+02,-2.64e+02,-5.34e+02,1.43e+02,1.08e+03
3142,4.74e+02,2.07e+01,3.50e+02,-1.60e+02,-6.25e+02,5.34e+01,1.19e+03
3143,2.99e+02,1.44e+02,3.70e+02,-2.21e+02,-5.72e+02,1.83e+02,1.13e+03
3144,3.42e+02,8.11e+01,2.72e+02,-1.76e+02,-4.69e+02,2.36e+02,9.88e+02
3145,2.07e+02,2.21e+02,3.07e+02,-1.94e+02,-5.14e+02,1.58e+02,9.95e+02
3146,3.66e+01,3.11e+01,2.58e+02,1.82e+01,-1.96e+02,1.83e+02,5.16e+02
3147,1.20e+02,-1.43e+01,1.77e+02,-2.20e+00,-1.85e+02,2.36e+02,5.46e+02
3148,6.39e+01,-8.59e+01,-6.25e+01,-1.91e+01,-1.04e+02,2.37e+02,4.71e+02
3149,8.10e+01,-8.43e+01,5.62e+01,-6.54e+00,-2.35e+02,2.66e+02,6.33e+02
3150,1.76e+02,-6.25e+01,1.39e+02,-7.62e-01,-1.92e+02,2.72e+02,6.18e+02
3151,-1.19e+03,-5.10e+02,-5.10e+02,-5.71e+02,8.29e+02,0.00e+00,1.87e+03
3152,-1.43e+03,-6.14e+02,-6.14e+02,-4.27e+02,7.96e+02,0.00e+00,1.77e+03
3153,-3.88e+02,-7.10e+01,-1.51e+02,-3.49e+02,5.64e+02,6.21e+01,1.19e+03
3154,-1.86e+03,-4.86e+02,-5.44e+02,-3.79e+02,6.89e+02,-6.04e+01,1.92e+03
3155,-1.24e+03,-3.73e+02,-5.21e+02,-5.28e+02,7.83e+02,4.59e+01,1.83e+03
3156,-1.51e+02,3.06e+01,-4.92e+01,-2.01e+02,3.44e+02,6.21e+01,7.16e+02
3157,-5.84e+02,6.12e+01,3.71e+00,-1.25e+02,3.40e+02,-6.04e+01,8.87e+02
3158,-4.12e+02,-5.96e+01,-2.31e+02,-1.63e+02,3.66e+02,3.25e+01,7.60e+02
3159,-4.76e+02,-1.33e+02,-1.75e+02,-1.35e+02,2.77e+02,4.26e+01,6.29e+02
3160,-3.97e+02,-9.52e+01,-1.04e+02,-1.23e+02,3.08e+02,5.38e+01,6.54e+02
3161,-7.26e+01,8.59e+01,-8.60e+01,6.94e+00,3.08e+01,3.25e+01,1.83e+02
3162,-9.35e+01,3.06e+01,-1.10e+01,1.54e+01,3.23e+01,4.26e+01,1.46e+02
3163,-1.09e+02,1.21e+02,3.23e+01,-1.45e+01,4.04e+01,1.92e+01,2.17e+02
3164,-5.67e+01,5.81e+01,-1.70e+01,-2.73e+00,6.54e+01,6.14e+01,1.85e+02
3165,-8.59e+01,8.43e+01,-2.83e+01,-9.62e+00,4.98e+01,5.07e+01,1.95e+02
3166,-1.57e+02,-6.75e+01,-6.75e+01,-5.18e+02,8.59e+02,0.00e+00,1.74e+03
3167,-1.43e+03,-6.14e+02,-6.14e+02,-4.27e+02,7.96e+02,0.00e+00,1.77e+03
3168,-4.27e+02,-1.62e+02,-1.90e+02,-4.63e+02,5.64e+02,1.33e+02,1.31e+03
3169,-1.19e+03,-4.92e+02,-4.26e+02,-3.82e+02,6.40e+02,1.56e+02,1.51e+03
3170,-8.92e+02,-5.14e+02,-4.90e+02,-3.20e+02,6.75e+02,6.44e+01,1.36e+03
3171,-1.90e+02,-6.01e+01,-8.81e+01,-3.16e+02,3.44e+02,1.33e+02,8.49e+02
3172,-3.54e+02,-1.34e+02,-6.77e+01,-2.74e+02,3.06e+02,1.56e+02,8.05e+02
3173,-1.09e+02,4.85e+01,-1.78e+02,-2.40e+02,3.45e+02,2.03e+02,8.33e+02
3174,-4.67e+02,-1.11e+02,-1.66e+02,-2.85e+02,2.77e+02,1.60e+02,8.12e+02
3175,-2.84e+02,-3.89e+01,-8.56e+01,-3.26e+02,3.22e+02,1.61e+02,8.71e+02
3176,1.45e+01,1.01e+02,-1.25e+02,-7.61e+01,2.92e+01,2.03e+02,4.27e+02
3177,-8.41e+01,5.27e+01,-1.53e+00,-1.35e+02,3.23e+01,1.60e+02,3.85e+02
3178,-3.88e+01,2.84e+02,1.02e+02,-7.98e+01,4.04e+01,2.52e+02,5.42e+02
3179,-8.79e+01,2.39e+02,-4.32e+01,-5.75e+01,8.26e+00,2.12e+02,4.89e+02
3180,1.44e+01,1.49e+02,-3.72e+01,-7.30e+01,5.01e+01,1.66e+02,3.66e+02
3181,-1.57e+02,-6.75e+01,-6.75e+01,-5.18e+02,8.59e+02,0.00e+00,1.74e+03
3182,-1.26e+03,-5.41e+02,-5.41e+02,-3.79e+02,9.65e+02,0.00e+00,1.93e+03
3183,-2.17e+02,-3.85e+01,-3.84e+02,-4.44e+02,8.35e+02,2.67e+02,1.73e+03
3184,-1.12e+03,-3.34e+02,-3.58e+02,-4.38e+02,6.40e+02,1.31e+02,1.57e+03
3185,-5.57e+02,-3.60e+01,-6.36e+01,-5.80e+02,7.80e+02,1.02e+02,1.77e+03
3186,1.26e+01,6.00e+01,-2.86e+02,-2.80e+02,4.14e+02,2.67e+02,1.03e+03
3187,-2.87e+02,2.42e+01,8.93e-02,-3.30e+02,3.06e+02,1.31e+02,8.66e+02
3188,-5.35e+01,1.78e+02,-1.22e+02,-2.73e+02,3.45e+02,2.97e+02,9.59e+02
3189,-3.09e+02,2.05e+02,-3.50e+02,-1.86e+02,2.98e+02,3.02e+02,9.64e+02
3190,-1.59e+02,2.84e+01,-2.87e+02,-2.38e+02,3.89e+02,2.37e+02,9.32e+02
3191,7.02e+01,2.31e+02,-6.94e+01,-1.09e+02,2.92e+01,2.97e+02,6.09e+02
3192,-6.24e+01,3.11e+02,-2.44e+02,-7.25e+01,6.65e+00,3.02e+02,7.28e+02
3193,-4.38e+01,5.06e+02,-1.15e+02,-1.85e+01,1.97e+00,3.18e+02,8.07e+02
3194,4.09e+01,5.40e+02,8.57e+01,-9.74e+01,8.26e+00,2.74e+02,6.95e+02
3195,-3.46e+01,3.76e+02,-1.01e+02,-6.77e+01,-3.54e+01,3.51e+02,7.67e+02
3196,-1.96e+02,-8.40e+01,-8.40e+01,-3.40e+02,1.26e+03,0.00e+00,2.26e+03
3197,-1.26e+03,-5.41e+02,-5.41e+02,-3.79e+02,9.65e+02,0.00e+00,1.93e+03
3198,-1.58e+02,1.00e+02,-3.25e+02,-4.70e+02,8.35e+02,1.85e+02,1.73e+03
3199,-1.18e+03,-6.50e+01,-6.74e+02,-1.58e+02,8.57e+02,2.82e+02,1.86e+03
3200,-8.87e+02,-4.37e+02,-7.12e+02,-2.32e+02,9.83e+02,1.05e+02,1.80e+03
3201,7.20e+01,1.99e+02,-2.26e+02,-3.06e+02,4.14e+02,1.85e+02,1.02e+03
3202,-1.88e+02,3.59e+02,-2.50e+02,-9.95e+01,3.61e+02,2.82e+02,9.98e+02
3203,-5.53e+01,5.28e+02,-5.01e+02,-1.45e+02,4.69e+02,3.46e+02,1.37e+03
3204,-1.43e+02,5.94e+02,-1.84e+02,-1.78e+02,2.98e+02,2.23e+02,1.04e+03
3205,4.88e+01,5.33e+02,-2.00e+02,-1.95e+02,3.41e+02,2.88e+02,1.06e+03
3206,9.57e+01,5.93e+02,-4.37e+02,-4.44e+01,-7.48e+01,3.46e+02,1.09e+03
3207,1.04e+02,7.00e+02,-7.78e+01,-6.48e+01,6.65e+00,2.23e+02,8.11e+02
3208,8.26e+01,8.01e+02,1.11e+01,-1.32e+01,1.97e+00,1.96e+02,8.30e+02
3209,1.04e+01,8.64e+02,-1.14e+02,-1.33e+01,-3.62e+01,1.96e+02,9.85e+02
3210,1.02e+02,8.13e+02,-3.95e+01,-3.28e+01,1.97e+01,1.81e+02,8.54e+02
3211,-1.96e+02,-8.40e+01,-8.40e+01,-3.40e+02,1.26e+03,0.00e+00,2.26e+03
3212,-1.17e+03,-5.03e+02,-5.03e+02,1.73e+02,1.02e+03,0.00e+00,1.92e+03
3213,-3.83e+02,4.07e+02,-7.81e+02,-3.04e+01,1.20e+03,2.46e+02,2.36e+03
3214,-1.05e+03,2.25e+02,-5.49e+02,-1.26e+02,8.57e+02,7.85e+01,1.87e+03
3215,-5.09e+02,3.09e+02,-3.11e+02,-2.00e+02,1.02e+03,1.17e+02,1.96e+03
3216,-2.39e+01,5.61e+02,-6.27e+02,-5.30e+01,3.56e+02,2.46e+02,1.28e+03
3217,-6.39e+01,6.49e+02,-1.26e+02,-6.73e+01,3.61e+02,7.85e+01,9.89e+02
3218,6.53e+01,8.09e+02,-3.81e+02,-1.02e+02,4.69e+02,6.35e+01,1.34e+03
3219,-1.05e+02,9.30e+02,-4.09e+02,9.46e+01,3.35e+02,1.28e+02,1.37e+03
3220,-8.87e+01,7.08e+02,-2.81e+02,-1.36e+01,4.36e+02,9.86e+01,1.19e+03
3221,2.16e+02,8.74e+02,-3.16e+02,-1.82e+00,-7.48e+01,6.35e+01,1.05e+03
3222,7.64e+01,1.01e+03,-3.32e+02,2.87e+01,-6.74e+00,1.28e+02,1.21e+03
3223,3.00e+01,8.78e+02,-2.02e+01,-1.04e+02,-1.42e+02,2.76e+01,9.27e+02
3224,1.13e+02,1.10e+03,-1.16e+01,6.22e+01,-3.62e+01,-1.61e+01,1.07e+03
3225,2.38e+02,9.87e+02,-2.47e+02,2.69e+01,-7.20e+01,1.07e+02,1.10e+03
3226,-3.06e+02,-1.31e+02,-1.31e+02,3.99e+02,9.69e+02,0.00e+00,1.82e+03
3227,-1.17e+03,-5.03e+02,-5.03e+02,1.73e+02,1.02e+03,0.00e+00,1.92e+03
3228,-3.33e+02,5.24e+02,-7.31e+02,2.38e+01,1.20e+03,-2.14e+02,2.38e+03
3229,-6.64e+02,3.68e+02,-4.88e+02,5.80e+02,6.56e+02,-1.14e+02,1.80e+03
3230,-5.63e+02,4.80e+01,-9.43e+01,3.89e+02,8.93e+02,-1.18e+02,1.79e+03
3231,2.60e+01,6.78e+02,-5.78e+02,1.11e+00,3.56e+02,-2.14e+02,1.30e+03
3232,2.42e+01,6.63e+02,-1.93e+02,3.32e+02,2.24e+02,-1.14e+02,1.06e+03
3233,3.17e+01,8.33e+02,-4.04e+02,1.81e+01,3.39e+02,-1.43e+02,1.26e+03
3234,-1.02e+02,9.36e+02,-4.07e+02,2.05e+02,3.35e+02,-2.01e+02,1.44e+03
3235,2.04e+02,9.94e+02,-4.47e+02,1.19e+02,3.62e+02,-1.35e+02,1.43e+03
3236,2.09e+02,9.09e+02,-3.28e+02,-6.24e+01,-1.60e+02,-1.43e+02,1.14e+03
3237,7.89e+01,1.01e+03,-3.29e+02,1.39e+02,-6.74e+00,-2.01e+02,1.27e+03
3238,3.69e+00,8.17e+02,-4.66e+01,7.46e+01,-1.42e+02,-2.95e+02,1.02e+03
3239,1.64e+02,1.00e+03,6.56e+01,5.88e+01,-4.63e+01,-2.52e+02,1.00e+03
3240,-5.53e+00,9.28e+02,-6.58e+01,3.10e+01,-1.07e+02,-2.68e+02,1.09e+03
3241,-3.06e+02,-1.31e+02,-1.31e+02,3.99e+02,9.69e+02,0.00e+00,1.82e+03
3242,-2.89e+02,-1.24e+02,-1.24e+02,7.75e+02,2.65e+02,0.00e+00,1.43e+03
3243,-5.17e+01,2.80e+02,-1.73e+02,6.05e+02,3.34e+02,-3.14e+02,1.38e+03
3244,-7.34e+02,2.04e+02,-5.58e+02,6.34e+02,6.56e+02,-3.47e+02,1.90e+03
3245,-5.02e+02,-1.88e+01,-9.19e+02,5.89e+02,6.19e+02,-1.37e+02,1.69e+03
3246,5.12e+01,3.25e+02,-1.28e+02,2.62e+02,7.68e+01,-3.14e+02,8.22e+02
3247,-4.60e+01,4.99e+02,-2.64e+02,3.86e+02,2.24e+02,-3.47e+02,1.19e+03
3248,-8.45e+01,5.61e+02,-5.21e+02,1.08e+02,3.39e+02,-5.21e+02,1.44e+03
3249,1.13e+02,5.78e+02,2.49e+01,3.77e+02,8.46e+01,-4.15e+02,1.11e+03
3250,-5.68e+01,4.25e+02,4.33e+01,2.85e+02,9.63e+01,-4.12e+02,9.88e+02
3251,9.31e+01,6.38e+02,-4.44e+02,2.77e+01,-1.60e+02,-5.21e+02,1.33e+03
3252,1.57e+02,5.97e+02,4.39e+01,1.23e+02,-6.33e+00,-4.15e+02,9.05e+02
3253,1.13e+02,5.10e+02,1.44e+02,-1.53e+02,-5.52e+01,-4.51e+02,9.14e+02
3254,-2.70e+01,5.57e+02,-1.26e+02,1.31e+02,-4.63e+01,-4.23e+02,1.00e+03
3255,3.43e+02,7.65e+02,-4.47e+00,1.65e+01,1.68e+01,-4.26e+02,9.96e+02
3256,1.11e+02,4.76e+01,4.76e+01,6.44e+02,-3.70e+02,0.00e+00,1.29e+03
3257,-2.89e+02,-1.24e+02,-1.24e+02,7.75e+02,2.65e+02,0.00e+00,1.43e+03
3258,-1.47e+02,5.89e+01,-2.67e+02,6.13e+02,3.34e+02,-4.42e+02,1.46e+03
3259,3.06e+02,1.25e+01,2.66e+02,8.42e+02,-2.46e+02,-4.15e+02,1.70e+03
3260,2.26e+02,1.67e+02,8.06e+02,7.57e+02,-1.00e+02,-2.10e+02,1.50e+03
3261,-4.37e+01,1.03e+02,-2.23e+02,2.70e+02,7.68e+01,-4.42e+02,9.50e+02
3262,5.43e+01,-9.55e+01,1.58e+02,4.81e+02,-7.98e+01,-4.15e+02,1.13e+03
3263,9.89e+01,-6.47e+01,2.82e+02,1.16e+02,-1.26e+02,-5.72e+02,1.08e+03
3264,-1.48e+02,-3.11e+01,-2.36e+02,4.02e+02,8.46e+01,-4.99e+02,1.13e+03
3265,1.13e+02,1.11e+02,-2.31e+02,3.03e+02,1.00e+02,-4.78e+02,1.05e+03
3266,3.35e+01,-9.27e+01,2.54e+02,-4.07e+01,6.94e+01,-5.72e+02,1.05e+03
3267,-1.04e+02,-1.21e+01,-2.17e+02,1.48e+02,-6.33e+00,-4.99e+02,9.18e+02
3268,-1.37e+02,-7.32e+01,-1.06e+02,-1.01e+02,-5.52e+01,-5.08e+02,9.04e+02
3269,1.09e+02,1.18e+01,1.51e+02,1.09e+02,2.07e+01,-4.73e+02,8.50e+02
3270,-2.91e+02,-2.49e+02,-8.39e+01,-4.00e+00,-7.65e+01,-5.14e+02,9.20e+02
3271,1.11e+02,4.76e+01,4.76e+01,6.44e+02,-3.70e+02,0.00e+00,1.29e+03
3272,7.87e+02,3.37e+02,3.37e+02,5.25e+02,-7.32e+02,0.00e+00,1.62e+03
3273,2.80e+02,-4.06e+02,6.33e+02,3.71e+02,-9.23e+02,-3.98e+02,2.07e+03
3274,1.77e+02,-2.89e+02,1.37e+02,8.18e+02,-2.46e+02,-3.19e+02,1.64e+03
3275,1.48e+02,-2.08e+02,-4.10e+02,6.65e+02,-4.71e+02,-2.01e+02,1.53e+03
3276,-5.88e-01,-5.27e+02,5.13e+02,1.67e+02,-2.23e+02,-3.98e+02,1.23e+03
3277,-7.50e+01,-3.97e+02,2.91e+01,4.57e+02,-7.98e+01,-3.19e+02,1.05e+03
3278,-9.50e+01,-5.17e+02,8.81e+01,8.07e+01,-1.26e+02,-4.12e+02,9.30e+02
3279,1.13e+02,-6.00e+02,3.76e+02,3.35e+02,-2.36e+02,-4.04e+02,1.33e+03
3280,-1.93e+02,-7.07e+02,3.87e+02,2.38e+02,-2.62e+02,-3.60e+02,1.29e+03
3281,-1.61e+02,-5.45e+02,6.01e+01,-7.58e+01,6.94e+01,-4.12e+02,9.07e+02
3282,6.82e-01,-6.48e+02,3.28e+02,1.60e+02,1.46e+01,-4.04e+02,1.14e+03
3283,8.25e+01,-4.53e+02,4.92e+01,4.71e+00,1.47e+02,-4.37e+02,9.53e+02
3284,-1.68e+02,-6.34e+02,-1.26e+02,7.94e+01,2.07e+01,-3.99e+02,8.57e+02
3285,1.45e+02,-4.41e+02,1.07e+02,6.78e+00,1.18e+02,-4.41e+02,9.74e+02
3286,3.21e+02,1.38e+02,1.38e+02,-1.84e+01,-1.27e+03,0.00e+00,2.20e+03
3287,7.87e+02,3.37e+02,3.37e+02,5.25e+02,-7.32e+02,0.00e+00,1.62e+03
3288,2.37e+02,-5.07e+02,5.90e+02,3.39e+02,-9.23e+02,-2.41e+01,1.96e+03
3289,9.36e+02,-3.30e+02,6.42e+02,2.36e+02,-8.60e+02,-1.24e+02,1.94e+03
3290,5.48e+02,-2.21e+02,6.76e+02,1.98e+02,-9.44e+02,3.97e+00,1.87e+03
3291,-4.35e+01,-6.27e+02,4.70e+02,1.34e+02,-2.23e+02,-2.41e+01,1.05e+03
3292,1.38e+01,-7.25e+02,2.47e+02,1.66e+02,-3.15e+02,-1.24e+02,1.10e+03
3293,-3.95e+01,-8.62e+02,5.41e+02,3.22e+01,-4.44e+02,-2.52e+02,1.51e+03
3294,-3.34e+01,-9.41e+02,2.30e+02,2.49e+02,-2.36e+02,-1.46e+02,1.24e+03
3295,1.05e+01,-7.75e+02,1.57e+02,1.63e+02,-2.93e+02,-1.61e+02,1.08e+03
3296,-2.20e+02,-9.40e+02,4.63e+02,4.99e+01,1.69e+02,-2.52e+02,1.33e+03
3297,-1.45e+02,-9.88e+02,1.82e+02,7.37e+01,1.46e+01,-1.46e+02,1.08e+03
3298,-6.63e+01,-8.00e+02,-9.96e+01,-1.61e+02,1.47e+02,-2.30e+02,9.04e+02
3299,-7.19e+01,-9.86e+02,5.88e+01,1.17e+02,5.89e+01,-2.36e+02,1.09e+03
3300,-3.36e+02,-1.04e+03,1.41e+02,3.10e+01,5.29e+01,-1.66e+02,1.07e+03
3301,3.21e+02,1.38e+02,1.38e+02,-1.84e+01,-1.27e+03,0.00e+00,2.20e+03
3302,1.20e+03,5.13e+02,5.13e+02,-1.73e+02,-1.02e+03,0.00e+00,1.93e+03
3303,1.42e+02,-3.93e+02,4.78e+02,-3.25e+02,-1.03e+03,8.16e+01,2.03e+03
3304,9.91e+02,-2.02e+02,6.97e+02,1.69e+02,-8.60e+02,1.67e+02,1.88e+03
3305,8.13e+02,2.50e+02,5.80e+02,8.43e+00,-1.04e+03,3.59e+01,1.87e+03
3306,-1.32e+02,-5.10e+02,3.60e+02,-2.05e+02,-4.08e+02,8.16e+01,1.10e+03
3307,6.87e+01,-5.97e+02,3.02e+02,9.79e+01,-3.15e+02,1.67e+02,1.03e+03
3308,-4.62e+00,-7.81e+02,5.75e+02,-7.88e+01,-4.44e+02,2.07e+02,1.46e+03
3309,8.34e+01,-8.92e+02,2.71e+02,5.13e-02,-3.12e+02,7.51e+01,1.22e+03
3310,-2.09e+02,-8.73e+02,3.42e+02,-6.28e+01,-3.44e+02,1.67e+02,1.25e+03
3311,-1.85e+02,-8.58e+02,4.98e+02,-6.12e+01,1.69e+02,2.07e+02,1.27e+03
3312,-1.22e+02,-9.80e+02,1.83e+02,4.30e+01,5.06e+00,7.51e+01,1.06e+03
3313,-6.83e+01,-9.22e+02,1.57e+01,5.00e+01,7.00e+01,-2.79e+01,9.12e+02
3314,-9.97e+01,-1.05e+03,3.10e+01,2.91e+01,5.89e+01,-4.55e+00,1.03e+03
3315,-7.50e+01,-1.03e+03,5.25e+00,1.14e+01,4.94e+01,2.81e+00,1.00e+03
3316,9.40e+01,4.03e+01,4.03e+01,-4.80e+02,-1.04e+03,0.00e+00,1.98e+03
3317,1.20e+03,5.13e+02,5.13e+02,-1.73e+02,-1.02e+03,0.00e+00,1.93e+03
3318,2.34e+02,-1.80e+02,5.69e+02,-3.01e+02,-1.03e+03,2.96e+02,2.04e+03
3319,1.05e+03,6.85e+01,4.29e+02,-3.43e+02,-7.29e+02,1.37e+02,1.65e+03
3320,4.62e+02,-1.62e+02,1.04e+02,-4.58e+02,-9.00e+02,1.22e+02,1.84e+03
3321,-4.07e+01,-2.97e+02,4.52e+02,-1.81e+02,-4.08e+02,2.96e+02,1.14e+03
3322,1.53e+02,-3.14e+02,4.61e+01,-2.34e+02,-3.34e+02,1.37e+02,8.57e+02
3323,-7.19e+01,-4.81e+02,2.17e+02,-1.99e+02,-3.94e+02,2.32e+02,1.06e+03
3324,2.12e+02,-5.91e+02,4.00e+02,-6.03e+01,-3.12e+02,2.78e+02,1.17e+03
3325,8.45e+01,-3.57e+02,3.03e+02,-1.45e+02,-4.25e+02,2.11e+02,1.04e+03
3326,-1.65e+02,-5.20e+02,1.77e+02,-4.83e+01,6.83e+00,2.32e+02,7.30e+02
3327,7.08e+00,-6.79e+02,3.12e+02,-1.74e+01,5.06e+00,2.78e+02,1.00e+03
3328,1.62e+01,-7.25e+02,1.00e+02,-2.45e+01,7.00e+01,2.28e+02,8.89e+02
3329,-1.01e+02,-8.75e+02,-5.13e+01,-2.36e+01,1.83e+01,1.74e+02,8.57e+02
3330,-7.85e+01,-6.75e+02,1.94e+02,-3.62e+00,6.48e+01,2.88e+02,9.24e+02
3331,9.40e+01,4.03e+01,4.03e+01,-4.80e+02,-1.04e+03,0.00e+00,1.98e+03
3332,1.26e+03,5.39e+02,5.39e+02,-4.32e+02,-8.32e+02,0.00e+00,1.78e+03
3333,2.10e+02,8.81e+01,2.09e+02,-4.81e+02,-6.26e+02,1.79e+02,1.41e+03
3334,1.15e+03,3.20e+02,5.37e+02,-3.34e+02,-7.29e+02,2.46e+02,1.63e+03
3335,8.33e+02,4.87e+02,6.19e+02,-3.18e+02,-7.96e+02,1.05e+02,1.53e+03
3336,1.73e+01,5.68e+00,1.26e+02,-3.40e+02,-3.52e+02,1.79e+02,9.09e+02
3337,2.61e+02,-6.24e+01,1.54e+02,-2.24e+02,-3.34e+02,2.46e+02,8.65e+02
3338,3.11e+01,-2.40e+02,3.20e+02,-2.07e+02,-3.94e+02,3.18e+02,1.06e+03
3339,2.49e+02,-1.91e+02,1.33e+02,-2.68e+02,-2.61e+02,2.30e+02,8.58e+02
3340,8.21e+01,-1.91e+02,8.89e+01,-2.88e+02,-3.07e+02,2.57e+02,8.99e+02
3341,-6.15e+01,-2.80e+02,2.80e+02,-5.67e+01,6.83e+00,3.18e+02,7.43e+02
3342,-2.91e+01,-3.10e+02,1.32e+01,-1.31e+02,-1.01e+01,2.30e+02,5.51e+02
3343,-2.88e+01,-5.26e+02,-6.14e+01,-6.07e+01,-3.35e+01,2.93e+02,7.11e+02
3344,5.04e+01,-5.21e+02,1.01e+02,-4.84e+01,1.83e+01,2.67e+02,7.61e+02
3345,-8.92e+01,-4.33e+02,5.66e+01,-6.54e+01,-4.38e+01,2.23e+02,5.98e+02
3346,3.52e+02,1.51e+02,1.51e+02,-4.93e+02,-7.54e+02,0.00e+00,1.57e+03
3347,1.26e+03,5.39e+02,5.39e+02,-4.32e+02,-8.32e+02,0.00e+00,1.78e+03
3348,2.36e+02,1.50e+02,2.35e+02,-4.52e+02,-6.26e+02,1.64e+02,1.37e+03
3349,1.29e+03,4.48e+02,3.64e+02,-4.19e+02,-5.76e+02,3.66e+01,1.52e+03
3350,7.18e+02,2.08e+02,1.94e+02,-5.70e+02,-6.85e+02,5.76e+01,1.63e+03
3351,4.37e+01,6.74e+01,1.53e+02,-3.11e+02,-3.52e+02,1.64e+02,8.67e+02
3352,4.52e+02,8.97e+01,5.86e+00,-2.90e+02,-2.82e+02,3.66e+01,8.14e+02
3353,2.73e+02,6.97e+00,1.16e+02,-2.82e+02,-3.09e+02,2.08e+02,8.42e+02
3354,3.55e+02,5.56e+01,2.38e+02,-2.05e+02,-2.61e+02,1.81e+02,7.05e+02
3355,2.97e+02,1.64e+02,2.06e+02,-2.42e+02,-3.09e+02,1.46e+02,7.35e+02
3356,5.05e+01,-8.84e+01,2.03e+01,-1.08e+02,-2.38e+01,2.08e+02,4.27e+02
3357,7.65e+01,-6.38e+01,1.19e+02,-6.82e+01,-1.01e+01,1.81e+02,3.73e+02
3358,6.82e+01,-3.00e+02,3.56e+01,-3.08e+01,-3.35e+01,2.16e+02,5.21e+02
3359,2.41e+01,-2.23e+02,-7.28e+01,-9.10e+01,-3.10e+01,2.18e+02,4.66e+02
3360,8.30e+01,-1.76e+02,1.43e+01,-8.36e+01,5.54e-01,2.41e+02,4.99e+02
3361,3.52e+02,1.51e+02,1.51e+02,-4.93e+02,-7.54e+02,0.00e+00,1.57e+03
3362,2.17e+03,9.30e+02,9.30e+02,-5.15e+02,-8.59e+02,0.00e+00,2.13e+03
3363,1.04e+03,1.98e+02,3.77e+02,-4.04e+02,-6.23e+02,-2.02e+01,1.50e+03
3364,1.24e+03,3.36e+02,3.16e+02,-2.72e+02,-5.76e+02,5.65e+00,1.43e+03
3365,1.18e+03,4.44e+02,3.75e+02,-2.88e+02,-5.90e+02,-5.25e+01,1.38e+03
3366,3.61e+02,-9.21e+01,8.64e+01,-1.60e+02,-3.75e+02,-2.02e+01,8.11e+02
3367,4.04e+02,-2.26e+01,-4.23e+01,-1.44e+02,-2.82e+02,5.65e+00,7.00e+02
3368,2.77e+02,1.56e+01,1.19e+02,-1.76e+02,-3.09e+02,1.86e+01,6.57e+02
3369,5.51e+02,1.45e+02,2.36e+02,-1.21e+02,-3.42e+02,2.13e+01,7.29e+02
3370,4.41e+02,-3.68e+01,1.34e+02,-1.83e+02,-3.56e+02,-2.95e+01,8.13e+02
3371,5.43e+01,-7.97e+01,2.41e+01,-2.20e+00,-2.38e+01,1.86e+01,1.33e+02
3372,1.00e+02,-4.88e+01,4.26e+01,-5.34e+00,-7.38e+01,2.13e+01,1.86e+02
3373,6.58e+01,-9.95e+01,2.08e+01,-6.54e+00,-7.15e+01,6.62e+01,2.25e+02
3374,9.43e+01,-5.93e+01,-2.57e+00,-1.10e+01,-3.10e+01,6.83e+01,1.88e+02
3375,2.95e+00,-4.31e+01,1.54e+01,3.88e+00,-4.49e+01,3.80e+01,1.15e+02
3376,-3.04e+05,-1.05e+05,-1.11e+05,-5.34e+04,-5.29e+04,-2.14e+03,2.36e+05
3377,-1.09e+05,-3.16e+04,-3.28e+04,-2.23e+04,-8.25e+03,-6.47e+03,8.82e+04
3378,-1.09e+05,-9.26e+03,-6.56e+03,-4.54e+02,-1.07e+04,8.98e+03,1.04e+05
3379,-1.88e+05,-4.88e+03,-1.60e+04,-5.82e+03,-1.95e+04,-8.04e+03,1.82e+05
3380,-1.43e+05,-2.50e+04,-1.54e+04,-1.16e+04,-3.08e+03,7.71e+03,1.25e+05
3381,-1.02e+05,-6.49e+03,-3.79e+03,-2.18e+04,-2.99e+03,8.98e+03,1.06e+05
3382,-1.77e+05,1.95e+02,-1.09e+04,-1.58e+04,-1.25e+04,-8.04e+03,1.76e+05
3383,-1.97e+05,-6.39e+03,-1.52e+04,-2.69e+02,-7.50e+03,8.06e+03,1.87e+05
3384,-1.04e+05,-8.51e+02,-2.18e+03,5.49e+02,-4.15e+03,-8.54e+03,1.03e+05
3385,-1.54e+05,-5.13e+03,-1.27e+04,-1.11e+04,-1.90e+04,-9.04e+02,1.50e+05
3386,-1.72e+05,4.24e+03,-4.60e+03,-1.39e+04,-3.89e+03,8.06e+03,1.75e+05
3387,-9.92e+04,1.01e+03,-3.25e+02,-1.54e+04,-9.07e+02,-8.54e+03,1.04e+05
3388,-9.92e+04,-1.57e+03,-2.41e+03,2.67e+03,-9.04e+02,7.98e+03,9.83e+04
3389,-1.70e+05,-1.53e+03,-4.68e+03,2.36e+03,-1.95e+03,-7.73e+03,1.67e+05
3390,-1.34e+05,-1.61e+02,-8.35e+02,-6.24e+03,7.92e+03,-9.06e+02,1.35e+05
3391,-9.31e+04,1.06e+03,2.23e+02,-1.41e+04,5.13e+02,7.98e+03,9.79e+04
3392,-1.58e+05,3.39e+03,2.42e+02,-1.32e+04,1.12e+03,-7.73e+03,1.62e+05
3393,-1.57e+05,-1.15e+03,-7.11e+03,1.25e+03,1.92e+03,6.26e+03,1.54e+05
3394,-9.48e+04,-1.99e+03,-2.13e+03,2.11e+03,1.22e+02,-7.10e+03,9.36e+04
3395,-1.26e+05,-1.14e+02,-5.84e+02,-5.63e+03,-7.79e+03,9.73e+02,1.27e+05
3396,-1.48e+05,3.11e+03,-2.84e+03,-1.28e+04,-5.79e+02,6.26e+03,1.50e+05
3397,-8.84e+04,7.22e+02,5.74e+02,-1.29e+04,4.66e+02,-7.10e+03,9.27e+04
3398,-8.73e+04,-1.35e+03,-1.73e+03,1.04e+03,3.43e+02,6.74e+03,8.65e+04
3399,-1.47e+05,-1.52e+03,-2.94e+03,1.79e+03,6.48e+02,-6.64e+03,1.45e+05
3400,-1.17e+05,8.89e+02,-1.04e+03,-6.07e+03,8.25e+03,-9.08e+02,1.18e+05
3401,-8.14e+04,1.16e+03,7.76e+02,-1.33e+04,5.74e+02,6.74e+03,8.64e+04
3402,-1.36e+05,2.91e+03,1.49e+03,-1.21e+04,1.48e+03,-6.64e+03,1.41e+05
3403,-1.36e+05,-1.29e+03,-6.00e+03,-2.08e+02,2.56e+03,5.35e+03,1.33e+05
3404,-8.19e+04,-1.98e+03,-1.89e+03,1.26e+03,4.24e+02,-6.27e+03,8.07e+04
3405,-1.09e+05,-7.03e+02,4.93e+02,-5.83e+03,-6.10e+03,9.61e+02,1.10e+05
3406,-1.26e+05,2.92e+03,-1.78e+03,-1.22e+04,-2.72e+02,5.35e+03,1.29e+05
3407,-7.55e+04,7.48e+02,8.46e+02,-1.17e+04,3.31e+02,-6.27e+03,7.97e+04
3408,-7.50e+04,-1.45e+03,-1.68e+03,-3.30e+02,3.94e+02,5.59e+03,7.40e+04
3409,-1.25e+05,-1.63e+03,-2.66e+03,7.50e+02,9.09e+02,-5.62e+03,1.23e+05
3410,-9.98e+04,1.20e+03,-9.75e+02,-6.08e+03,7.14e+03,-1.04e+03,1.01e+05
3411,-6.88e+04,1.19e+03,9.63e+02,-1.23e+04,4.61e+02,5.59e+03,7.37e+04
3412,-1.15e+05,2.73e+03,1.71e+03,-1.10e+04,1.37e+03,-5.62e+03,1.19e+05
3413,-1.15e+05,-1.48e+03,-5.35e+03,-1.33e+03,2.38e+03,4.45e+03,1.12e+05
3414,-6.88e+04,-1.89e+03,-1.80e+03,2.10e+02,3.83e+02,-5.28e+03,6.76e+04
3415,-9.18e+04,-9.14e+02,6.28e+02,-5.94e+03,-5.02e+03,9.40e+02,9.27e+04
3416,-1.05e+05,2.81e+03,-1.06e+03,-1.13e+04,-5.10e+01,4.45e+03,1.08e+05
3417,-6.24e+04,8.51e+02,9.41e+02,-1.06e+04,2.82e+02,-5.28e+03,6.66e+04
3418,-6.20e+04,-1.45e+03,-1.64e+03,-1.47e+03,3.76e+02,4.56e+03,6.10e+04
3419,-1.03e+05,-1.73e+03,-2.56e+03,-3.09e+02,9.56e+02,-4.61e+03,1.01e+05
3420,-8.24e+04,1.26e+03,-9.46e+02,-6.07e+03,6.01e+03,-1.06e+03,8.39e+04
3421,-5.58e+04,1.23e+03,1.04e+03,-1.13e+04,4.39e+02,4.56e+03,6.07e+04
3422,-9.30e+04,2.63e+03,1.79e+03,-9.95e+03,1.32e+03,-4.61e+03,9.71e+04
3423,-9.28e+04,-1.60e+03,-4.74e+03,-2.36e+03,2.15e+03,3.56e+03,9.00e+04
3424,-5.57e+04,-1.76e+03,-1.74e+03,-8.65e+02,3.55e+02,-4.23e+03,5.45e+04
3425,-7.44e+04,-9.79e+02,6.65e+02,-5.98e+03,-3.92e+03,9.49e+02,7.53e+04
3426,-8.27e+04,2.71e+03,-4.24e+02,-1.04e+04,2.35e+02,3.56e+03,8.60e+04
3427,-4.93e+04,9.86e+02,1.01e+03,-9.57e+03,2.93e+02,-4.23e+03,5.35e+04
3428,-4.89e+04,-1.36e+03,-1.61e+03,-2.62e+03,4.05e+02,3.54e+03,4.81e+04
3429,-8.13e+04,-1.80e+03,-2.54e+03,-1.43e+03,1.03e+03,-3.57e+03,7.95e+04
3430,-6.50e+04,1.30e+03,-9.68e+02,-6.12e+03,4.93e+03,-1.05e+03,6.66e+04
3431,-4.27e+04,1.33e+03,1.07e+03,-1.04e+04,4.82e+02,3.54e+03,4.78e+04
3432,-7.10e+04,2.62e+03,1.88e+03,-9.00e+03,1.37e+03,-3.57e+03,7.52e+04
3433,-7.07e+04,-1.70e+03,-4.19e+03,-3.57e+03,2.00e+03,2.66e+03,6.83e+04
3434,-4.25e+04,-1.55e+03,-1.74e+03,-2.08e+03,3.83e+02,-3.14e+03,4.14e+04
3435,-5.69e+04,-1.01e+03,6.85e+02,-6.15e+03,-2.73e+03,9.79e+02,5.80e+04
3436,-6.03e+04,2.74e+03,2.53e+02,-9.75e+03,6.63e+02,2.66e+03,6.43e+04
3437,-3.61e+04,1.23e+03,1.04e+03,-8.74e+03,3.57e+02,-3.14e+03,4.05e+04
3438,-3.60e+04,-1.09e+03,-1.64e+03,-4.18e+03,5.55e+02,2.39e+03,3.56e+04
3439,-5.89e+04,-1.92e+03,-2.66e+03,-2.89e+03,1.29e+03,-2.39e+03,5.70e+04
3440,-4.73e+04,1.50e+03,-1.12e+03,-6.45e+03,3.89e+03,-1.06e+03,4.93e+04
3441,-2.98e+04,1.55e+03,1.01e+03,-9.92e+03,5.79e+02,2.39e+03,3.58e+04
3442,-4.77e+04,2.86e+03,2.12e+03,-8.36e+03,1.56e+03,-2.39e+03,5.25e+04
3443,-4.74e+04,-2.01e+03,-3.63e+03,-5.49e+03,1.99e+03,1.60e+03,4.58e+04
3444,-2.92e+04,-1.29e+03,-1.75e+03,-3.92e+03,6.04e+02,-1.90e+03,2.87e+04
3445,-3.89e+04,-1.08e+03,7.54e+02,-6.91e+03,-1.21e+03,1.07e+03,4.07e+04
3446,-3.59e+04,2.92e+03,1.31e+03,-9.48e+03,1.14e+03,1.60e+03,4.15e+04
3447,-2.25e+04,1.57e+03,1.12e+03,-8.28e+03,5.06e+02,-1.90e+03,2.81e+04
3448,-2.29e+04,-1.27e+03,-1.49e+03,-6.71e+03,6.89e+02,8.98e+02,2.46e+04
3449,-3.39e+04,-2.60e+03,-2.69e+03,-5.08e+03,1.79e+03,-9.48e+02,3.26e+04
3450,-2.83e+04,1.58e+03,-1.23e+03,-7.34e+03,2.65e+03,-1.19e+03,3.17e+04
3451,-1.65e+04,1.47e+03,1.25e+03,-9.17e+03,3.74e+02,8.98e+02,2.40e+04
3452,-2.13e+04,2.80e+03,2.71e+03,-7.30e+03,1.59e+03,-9.48e+02,2.73e+04
3453,-2.14e+04,-3.23e+03,-2.33e+03,-7.42e+03,1.66e+03,3.91e+02,2.28e+04
3454,-1.49e+04,-2.38e+03,-1.17e+03,-6.23e+03,1.00e+03,-5.79e+02,1.71e+04
3455,-1.91e+04,-1.70e+03,1.14e+03,-7.65e+03,4.31e+02,1.20e+03,2.32e+04
3456,-1.01e+04,1.64e+03,2.53e+03,-6.63e+03,7.10e+02,3.91e+02,1.68e+04
3457,-7.88e+03,6.12e+02,1.82e+03,-5.68e+03,6.52e+02,-5.79e+02,1.35e+04
3458,-8.37e+03,-4.07e+03,-3.34e+01,-7.23e+03,2.23e+02,-1.85e+02,1.45e+04
3459,-8.83e+03,-3.46e+03,-1.07e+03,-4.95e+03,1.18e+03,-1.76e+02,1.12e+04
3460,-7.77e+03,6.52e+01,1.33e+02,-5.94e+03,9.77e+02,-1.21e+03,1.32e+04
3461,-2.41e+03,-1.52e+03,2.52e+03,-1.77e+03,-6.81e+01,-1.85e+02,5.50e+03
3462,-2.12e+03,-5.84e+02,1.80e+03,-1.67e+03,3.42e+02,-1.76e+02,4.53e+03
3463,-1.88e+03,-1.87e+03,7.15e+02,-2.22e+03,2.92e+02,-4.15e+02,4.73e+03
3464,-6.31e+02,-2.32e+03,1.96e+03,-1.82e+03,4.13e+02,-4.89e+02,5.01e+03
3465,-1.91e+03,-1.58e+03,2.13e+03,-1.97e+03,-3.51e+01,5.24e+01,5.18e+03
3466,-4.81e+04,-1.80e+04,-1.67e+04,-7.96e+03,-1.07e+04,3.02e+03,3.88e+04
3467,-1.09e+05,-2.95e+04,-3.19e+04,-1.80e+04,-8.25e+03,-3.73e+03,8.53e+04
3468,-1.08e+05,-6.43e+03,-5.34e+03,6.58e+03,-1.07e+04,1.02e+04,1.05e+05
3469,-2.69e+04,-7.08e+03,-2.34e+03,2.42e+03,-3.74e+03,-7.79e+03,2.74e+04
3470,-6.81e+04,-1.02e+04,-1.81e+04,-5.35e+03,-1.80e+04,-3.35e+03,6.37e+04
3471,-1.01e+05,-3.66e+03,-2.57e+03,-1.48e+04,-2.99e+03,1.02e+04,1.03e+05
3472,-3.27e+04,-9.56e+03,-4.83e+03,-1.98e+04,-2.83e+03,-7.79e+03,4.53e+04
3473,-3.56e+04,-3.34e+03,-2.11e+03,1.90e+03,-1.44e+03,8.74e+03,3.64e+04
3474,-1.04e+05,-9.80e+02,-2.24e+03,-3.56e+03,-4.15e+03,-7.55e+03,1.03e+05
3475,-7.16e+04,-9.61e+03,-1.67e+03,-9.16e+03,6.17e+03,2.01e+03,6.91e+04
3476,-3.32e+04,-2.31e+03,-1.08e+03,-1.93e+04,-6.24e+01,8.74e+03,4.84e+04
3477,-9.93e+04,8.78e+02,-3.80e+02,-1.95e+04,-9.07e+02,-7.55e+03,1.06e+05
3478,-9.88e+04,-5.55e+02,-1.97e+03,-3.26e+03,-9.04e+02,8.28e+03,9.88e+04
3479,-3.37e+04,-1.44e+03,-1.06e+03,-3.27e+03,-3.76e+02,-6.75e+03,3.49e+04
3480,-6.67e+04,-8.28e+02,-1.88e+03,-1.13e+04,-9.18e+03,8.26e+02,7.01e+04
3481,-9.27e+04,2.08e+03,6.56e+02,-2.00e+04,5.13e+02,8.28e+03,1.01e+05
3482,-3.17e+04,-6.20e+02,-2.38e+02,-1.99e+04,1.33e+02,-6.75e+03,4.80e+04
3483,-3.09e+04,-5.25e+02,-6.55e+02,-4.71e+03,5.43e+01,7.69e+03,3.41e+04
3484,-9.42e+04,-6.89e+02,-1.58e+03,-4.27e+03,1.22e+02,-6.63e+03,9.41e+04
3485,-6.23e+04,1.24e+02,-8.80e+02,-1.25e+04,8.28e+03,3.27e+02,6.71e+04
3486,-2.91e+04,2.55e+02,1.25e+02,-2.05e+04,1.53e+02,7.69e+03,4.79e+04
3487,-8.79e+04,2.02e+03,1.13e+03,-1.93e+04,4.66e+02,-6.63e+03,9.62e+04
3488,-8.68e+04,-3.28e+02,-1.30e+03,-5.90e+03,3.43e+02,7.02e+03,8.75e+04
3489,-2.95e+04,-1.06e+03,-7.44e+02,-4.87e+03,8.82e+01,-6.25e+03,3.18e+04
3490,-5.91e+04,-6.41e+02,2.83e+02,-1.25e+04,-7.26e+03,9.56e+02,6.40e+04
3491,-8.10e+04,2.18e+03,1.21e+03,-2.03e+04,5.74e+02,7.02e+03,9.06e+04
3492,-2.75e+04,-1.68e+02,1.46e+02,-1.90e+04,1.31e+02,-6.25e+03,4.42e+04
3493,-2.71e+04,-5.92e+02,-6.13e+02,-6.87e+03,1.51e+02,6.35e+03,3.10e+04
3494,-8.14e+04,-8.54e+02,-1.40e+03,-5.36e+03,4.24e+02,-5.90e+03,8.15e+04
3495,-5.33e+04,1.26e+03,-7.54e+02,-1.30e+04,7.30e+03,-1.54e+02,5.95e+04
3496,-2.51e+04,2.62e+02,2.42e+02,-2.00e+04,9.70e+01,6.35e+03,4.43e+04
3497,-7.50e+04,1.88e+03,1.33e+03,-1.83e+04,3.31e+02,-5.90e+03,8.36e+04
3498,-7.46e+04,-5.44e+02,-1.29e+03,-7.52e+03,3.94e+02,5.85e+03,7.55e+04
3499,-2.52e+04,-9.56e+02,-6.88e+02,-5.96e+03,8.25e+01,-5.49e+03,2.81e+04
3500,-5.12e+04,-1.24e+03,3.38e+02,-1.29e+04,-6.19e+03,7.04e+02,5.65e+04
3501,-6.84e+04,2.09e+03,1.35e+03,-1.95e+04,4.61e+02,5.85e+03,7.85e+04
3502,-2.31e+04,-5.01e+01,2.18e+02,-1.79e+04,8.30e+01,-5.49e+03,3.99e+04
3503,-2.29e+04,-6.12e+02,-6.08e+02,-8.21e+03,1.28e+02,5.22e+03,2.79e+04
3504,-6.84e+04,-9.43e+02,-1.39e+03,-6.45e+03,3.83e+02,-4.99e+03,6.87e+04
3505,-4.45e+04,1.57e+03,-6.09e+02,-1.31e+04,6.14e+03,-3.51e+02,5.15e+04
3506,-2.08e+04,2.81e+02,2.85e+02,-1.91e+04,7.88e+01,5.22e+03,4.02e+04
3507,-6.20e+04,1.80e+03,1.35e+03,-1.73e+04,2.82e+02,-4.99e+03,7.08e+04
3508,-6.17e+04,-6.83e+02,-1.31e+03,-8.72e+03,3.76e+02,4.76e+03,6.31e+04
3509,-2.08e+04,-8.44e+02,-6.53e+02,-7.06e+03,6.10e+01,-4.54e+03,2.48e+04
3510,-4.26e+04,-1.39e+03,3.17e+02,-1.30e+04,-5.11e+03,6.13e+02,4.86e+04
3511,-5.54e+04,2.00e+03,1.37e+03,-1.85e+04,4.39e+02,4.76e+03,6.60e+04
3512,-1.87e+04,6.21e+01,2.54e+02,-1.68e+04,6.81e+01,-4.54e+03,3.56e+04
3513,-1.85e+04,-5.04e+02,-5.86e+02,-9.37e+03,1.27e+02,4.16e+03,2.53e+04
3514,-5.54e+04,-9.58e+02,-1.39e+03,-7.57e+03,3.55e+02,-4.00e+03,5.62e+04
3515,-3.57e+04,1.67e+03,-5.54e+02,-1.31e+04,5.00e+03,-4.00e+02,4.37e+04
3516,-1.65e+04,3.74e+02,2.93e+02,-1.81e+04,9.96e+01,4.16e+03,3.62e+04
3517,-4.89e+04,1.79e+03,1.36e+03,-1.63e+04,2.93e+02,-4.00e+03,5.83e+04
3518,-4.86e+04,-6.27e+02,-1.30e+03,-9.95e+03,4.05e+02,3.70e+03,5.11e+04
3519,-1.65e+04,-5.96e+02,-6.32e+02,-8.22e+03,5.12e+01,-3.52e+03,2.22e+04
3520,-3.40e+04,-1.33e+03,3.37e+02,-1.31e+04,-3.96e+03,5.67e+02,4.11e+04
3521,-4.24e+04,2.05e+03,1.38e+03,-1.77e+04,4.82e+02,3.70e+03,5.41e+04
3522,-1.45e+04,2.64e+02,2.28e+02,-1.59e+04,6.71e+01,-3.52e+03,3.18e+04
3523,-1.45e+04,-5.07e+01,-5.43e+02,-1.07e+04,2.05e+02,3.06e+03,2.40e+04
3524,-4.22e+04,-7.22e+02,-1.38e+03,-8.89e+03,3.83e+02,-2.93e+03,4.42e+04
3525,-2.70e+04,1.99e+03,-5.37e+02,-1.33e+04,3.87e+03,-3.81e+02,3.68e+04
3526,-1.28e+04,6.72e+02,1.79e+02,-1.74e+04,1.74e+02,3.06e+03,3.33e+04
3527,-3.57e+04,2.05e+03,1.40e+03,-1.56e+04,3.57e+02,-2.93e+03,4.64e+04
3528,-3.56e+04,-1.76e+02,-1.24e+03,-1.17e+04,5.55e+02,2.60e+03,4.06e+04
3529,-1.26e+04,3.61e+01,-6.18e+02,-9.77e+03,1.34e+02,-2.47e+03,2.14e+04
3530,-2.56e+04,-1.00e+03,3.76e+02,-1.36e+04,-2.65e+03,5.09e+02,3.49e+04
3531,-2.94e+04,2.47e+03,1.40e+03,-1.74e+04,5.79e+02,2.60e+03,4.37e+04
3532,-1.11e+04,7.05e+02,5.14e+01,-1.54e+04,1.07e+02,-2.47e+03,2.93e+04
3533,-1.16e+04,7.30e+02,-4.37e+02,-1.29e+04,3.95e+02,1.80e+03,2.55e+04
3534,-2.88e+04,-3.77e+02,-1.36e+03,-1.09e+04,6.04e+02,-1.62e+03,3.38e+04
3535,-1.87e+04,2.72e+03,-5.65e+02,-1.41e+04,2.70e+03,-3.28e+02,3.20e+04
3536,-1.09e+04,1.04e+03,-1.28e+02,-1.77e+04,1.68e+02,1.80e+03,3.28e+04
3537,-2.21e+04,2.49e+03,1.51e+03,-1.52e+04,5.06e+02,-1.62e+03,3.59e+04
3538,-2.28e+04,-9.78e+02,-1.36e+03,-1.43e+04,6.89e+02,1.34e+03,3.30e+04
3539,-9.58e+03,2.30e+01,-4.45e+02,-1.23e+04,6.54e+02,-1.20e+03,2.33e+04
3540,-1.82e+04,-1.33e+03,3.04e+02,-1.50e+04,-1.03e+03,6.37e+02,3.16e+04
3541,-1.64e+04,1.76e+03,1.37e+03,-1.68e+04,3.74e+02,1.34e+03,3.43e+04
3542,-8.39e+03,5.34e+02,6.62e+01,-1.54e+04,4.51e+02,-1.20e+03,2.82e+04
3543,-8.85e+03,-2.64e+03,-2.13e+02,-1.58e+04,-8.41e+01,4.27e+02,2.84e+04
3544,-1.55e+04,-3.95e+03,-1.84e+03,-1.28e+04,1.00e+03,-3.24e+02,2.56e+04
3545,-1.08e+04,8.45e+02,-8.27e+02,-1.51e+04,1.39e+03,-7.96e+02,2.85e+04
3546,-6.62e+03,-1.68e+03,7.43e+02,-1.60e+04,-7.43e+02,4.27e+02,2.86e+04
3547,-8.55e+03,-9.56e+02,1.15e+03,-1.22e+04,6.52e+02,-3.24e+02,2.30e+04
3548,-1.07e+04,-9.41e+03,-2.32e+03,-1.35e+04,2.23e+02,-8.69e+01,2.47e+04
3549,-4.04e+03,-7.58e+03,5.39e+02,-1.28e+04,1.22e+03,-3.52e+02,2.34e+04
3550,-9.36e+03,-6.65e+03,6.58e+02,-1.39e+04,-3.18e+02,1.16e+03,2.58e+04
3551,-4.70e+03,-6.85e+03,2.34e+02,-8.06e+03,-6.81e+01,-8.69e+01,1.53e+04
3552,-6.28e+02,-6.12e+03,2.00e+03,-7.10e+03,1.11e+03,-3.52e+02,1.44e+04
3553,1.63e+03,-1.23e+04,3.09e+03,-8.66e+03,-1.21e+03,-5.03e+02,2.12e+04
3554,-4.16e+03,-1.06e+04,-1.58e+03,-5.76e+03,4.13e+02,-1.06e+03,1.30e+04
3555,-3.37e+02,-7.75e+03,6.78e+01,-7.16e+03,1.20e+03,-1.38e+03,1.49e+04
3556,-4.73e+04,-1.61e+04,-1.59e+04,-1.01e+04,-1.07e+04,3.18e+03,4.07e+04
3557,3.41e+04,1.03e+04,9.86e+03,-8.40e+03,2.48e+03,-1.57e+03,2.86e+04
3558,3.15e+04,-1.01e+03,-7.38e+02,1.08e+04,3.55e+03,7.06e+03,3.99e+04
3559,-2.28e+04,2.61e+03,1.81e+03,6.44e+03,-3.74e+03,-7.13e+03,3.07e+04
3560,7.04e+03,-3.97e+03,7.10e+03,1.92e+03,6.89e+03,1.03e+02,1.66e+04
3561,3.00e+04,-1.65e+03,-1.39e+03,-1.48e+04,1.30e+03,7.06e+03,4.25e+04
3562,-2.86e+04,1.28e+02,-6.76e+02,-1.58e+04,-2.83e+03,-7.13e+03,4.15e+04
3563,-3.37e+04,1.12e+03,-1.99e+02,9.32e+02,-1.44e+03,8.61e+03,3.74e+04
3564,3.10e+04,-1.66e+03,-9.28e+02,-1.03e+03,1.67e+03,-7.26e+03,3.48e+04
3565,-2.14e+03,5.20e+02,-4.70e+03,-7.99e+03,-8.35e+03,-4.86e+01,2.05e+04
3566,-3.13e+04,2.15e+03,8.30e+02,-2.03e+04,-6.24e+01,8.61e+03,5.03e+04
3567,3.10e+04,-1.63e+03,-9.04e+02,-2.09e+04,5.59e+02,-7.26e+03,5.02e+04
3568,3.23e+04,-2.75e+02,3.74e+02,-4.63e+03,1.95e+02,8.46e+03,3.63e+04
3569,-3.27e+04,7.32e+02,-1.30e+02,-5.16e+03,-3.76e+02,-6.68e+03,3.61e+04
3570,-2.34e+02,-1.63e+02,8.08e+02,-1.30e+04,8.39e+03,8.11e+02,2.68e+04
3571,3.04e+04,-1.05e+03,-4.04e+02,-2.20e+04,-1.59e+02,8.46e+03,5.14e+04
3572,-3.08e+04,1.56e+03,6.95e+02,-2.18e+04,1.33e+02,-6.68e+03,5.08e+04
3573,-3.06e+04,2.07e+02,-3.42e+02,-6.79e+03,5.43e+01,7.80e+03,3.54e+04
3574,3.11e+04,-2.35e+02,2.14e+02,-6.41e+03,-5.05e+00,-6.40e+03,3.48e+04
3575,-9.85e+01,5.81e+00,3.85e+02,-1.43e+04,-7.98e+03,9.11e+02,2.85e+04
3576,-2.87e+04,9.88e+02,4.39e+02,-2.26e+04,1.53e+02,7.80e+03,5.08e+04
3577,2.90e+04,-1.12e+03,-6.75e+02,-2.16e+04,-1.82e+02,-6.40e+03,4.91e+04
3578,2.87e+04,-1.67e+02,2.97e+02,-8.19e+03,-1.60e+02,7.11e+03,3.43e+04
3579,-2.90e+04,1.88e+02,-2.10e+02,-7.03e+03,8.82e+01,-6.17e+03,3.32e+04
3580,7.46e+02,7.43e+02,-5.93e+02,-1.49e+04,7.44e+03,6.51e+02,2.88e+04
3581,2.68e+04,-9.74e+02,-5.10e+02,-2.26e+04,-1.32e+02,7.11e+03,4.94e+04
3582,-2.69e+04,1.08e+03,6.80e+02,-2.11e+04,1.31e+02,-6.17e+03,4.72e+04
3583,-2.68e+04,1.10e+02,-3.12e+02,-9.17e+03,1.51e+02,6.48e+03,3.30e+04
3584,2.69e+04,-1.08e+02,2.38e+02,-7.61e+03,-9.44e+01,-5.83e+03,3.16e+04
3585,-1.14e+03,-1.18e+03,5.26e+02,-1.52e+04,-6.93e+03,4.35e+02,2.89e+04
3586,-2.48e+04,9.65e+02,5.43e+02,-2.23e+04,9.70e+01,6.48e+03,4.77e+04
3587,2.48e+04,-1.01e+03,-6.65e+02,-2.06e+04,-1.04e+02,-5.83e+03,4.51e+04
3588,2.48e+04,-7.48e+01,3.20e+02,-9.92e+03,-1.46e+02,5.88e+03,3.17e+04
3589,-2.48e+04,4.71e+01,-2.58e+02,-8.18e+03,8.25e+01,-5.42e+03,3.00e+04
3590,1.37e+03,1.42e+03,-4.53e+02,-1.53e+04,6.39e+03,2.94e+02,2.88e+04
3591,2.27e+04,-9.45e+02,-5.50e+02,-2.19e+04,-8.62e+01,5.88e+03,4.58e+04
3592,-2.27e+04,9.53e+02,6.48e+02,-2.01e+04,8.30e+01,-5.42e+03,4.30e+04
3593,-2.26e+04,1.96e+01,-3.37e+02,-1.06e+04,1.28e+02,5.32e+03,3.04e+04
3594,2.27e+04,-5.30e+00,2.79e+02,-8.73e+03,-8.44e+01,-4.96e+03,2.85e+04
3595,-1.43e+03,-1.55e+03,4.01e+02,-1.53e+04,-5.84e+03,2.15e+02,2.85e+04
3596,-2.05e+04,9.12e+02,5.55e+02,-2.14e+04,7.88e+01,5.32e+03,4.37e+04
3597,2.05e+04,-9.11e+02,-6.26e+02,-1.96e+04,-8.24e+01,-4.96e+03,4.10e+04
3598,2.05e+04,5.90e+01,3.48e+02,-1.11e+04,-1.29e+02,4.78e+03,2.92e+04
3599,-2.05e+04,-1.97e+01,-2.99e+02,-9.28e+03,6.10e+01,-4.48e+03,2.71e+04
3600,1.53e+03,1.61e+03,-3.70e+02,-1.54e+04,5.28e+03,1.73e+02,2.82e+04
3601,1.84e+04,-8.31e+02,-5.42e+02,-2.09e+04,-7.32e+01,4.78e+03,4.17e+04
3602,-1.84e+04,8.87e+02,6.07e+02,-1.91e+04,6.81e+01,-4.48e+03,3.89e+04
3603,-1.83e+04,4.31e+01,-3.51e+02,-1.17e+04,1.27e+02,4.24e+03,2.82e+04
3604,1.83e+04,1.81e+02,3.17e+02,-9.82e+03,-9.04e+01,-3.99e+03,2.58e+04
3605,-1.47e+03,-1.54e+03,3.69e+02,-1.54e+04,-4.74e+03,1.30e+02,2.79e+04
3606,-1.62e+04,9.22e+02,5.27e+02,-2.04e+04,9.96e+01,4.24e+03,3.99e+04
3607,1.62e+04,-7.44e+02,-6.08e+02,-1.85e+04,-8.04e+01,-3.99e+03,3.68e+04
3608,1.61e+04,4.40e+02,4.04e+02,-1.22e+04,-8.16e+01,3.71e+03,2.72e+04
3609,-1.62e+04,1.18e+02,-3.26e+02,-1.04e+04,5.12e+01,-3.47e+03,2.49e+04
3610,1.53e+03,1.85e+03,-3.29e+02,-1.54e+04,4.18e+03,1.62e+02,2.77e+04
3611,1.39e+04,-5.29e+02,-5.65e+02,-1.98e+04,-2.92e+01,3.71e+03,3.77e+04
3612,-1.42e+04,9.78e+02,5.34e+02,-1.80e+04,6.71e+01,-3.47e+03,3.52e+04
3613,-1.42e+04,5.23e+02,-2.97e+02,-1.28e+04,2.05e+02,3.21e+03,2.71e+04
3614,1.38e+04,7.36e+02,3.70e+02,-1.09e+04,-7.01e+01,-3.02e+03,2.37e+04
3615,-1.67e+03,-1.16e+03,3.80e+02,-1.54e+04,-3.58e+03,4.27e+01,2.75e+04
3616,-1.25e+04,1.25e+03,4.25e+02,-1.95e+04,1.74e+02,3.21e+03,3.68e+04
3617,1.14e+04,-3.12e+02,-6.77e+02,-1.74e+04,-6.51e+01,-3.02e+03,3.27e+04
3618,1.10e+04,1.50e+03,5.77e+02,-1.35e+04,1.03e+02,2.64e+03,2.58e+04
3619,-1.23e+04,8.17e+02,-2.83e+02,-1.15e+04,1.34e+02,-2.31e+03,2.40e+04
3620,1.06e+03,2.66e+03,-2.48e+02,-1.55e+04,3.13e+03,2.71e+02,2.75e+04
3621,7.82e+03,1.55e+02,-7.64e+02,-1.89e+04,6.08e+01,2.64e+03,3.40e+04
3622,-1.07e+04,1.49e+03,3.86e+02,-1.71e+04,1.07e+02,-2.31e+03,3.22e+04
3623,-1.13e+04,1.54e+03,-9.05e+01,-1.42e+04,3.95e+02,2.26e+03,2.78e+04
3624,8.29e+03,1.74e+03,4.80e+02,-1.22e+04,1.66e+02,-2.05e+03,2.27e+04
3625,-3.04e+03,-3.54e+02,3.67e+02,-1.57e+04,-2.28e+03,-3.21e+01,2.77e+04
3626,-1.06e+04,1.85e+03,2.18e+02,-1.90e+04,1.68e+02,2.26e+03,3.51e+04
3627,4.84e+03,2.64e+02,-9.99e+02,-1.67e+04,3.11e+01,-2.05e+03,2.96e+04
3628,3.02e+03,1.79e+03,7.96e+02,-1.57e+04,3.38e+02,1.56e+03,2.73e+04
3629,-9.22e+03,8.69e+02,-8.23e+01,-1.31e+04,6.54e+02,-7.82e+02,2.47e+04
3630,-1.06e+03,3.57e+03,-2.12e+02,-1.60e+04,2.08e+03,4.09e+02,2.82e+04
3631,-2.15e+03,-4.33e+02,-1.42e+03,-2.02e+04,-1.84e+02,1.56e+03,3.51e+04
3632,-8.02e+03,1.38e+03,4.29e+02,-1.63e+04,4.51e+02,-7.82e+02,2.96e+04
3633,-9.39e+03,-3.89e+03,-7.51e+02,-1.72e+04,-8.41e+01,1.11e+03,3.08e+04
3634,8.25e+02,-1.64e+03,6.17e+02,-1.49e+04,1.43e+03,-2.69e+02,2.60e+04
3635,-7.89e+03,-3.86e+03,-3.81e+02,-1.75e+04,-5.63e+02,8.76e+02,3.11e+04
3636,-7.16e+03,-2.94e+03,2.05e+02,-1.75e+04,-7.43e+02,1.11e+03,3.11e+04
3637,-3.04e+03,-3.30e+03,-1.04e+03,-1.81e+04,1.20e+03,-2.69e+02,3.15e+04
3638,-2.44e+03,-1.39e+04,8.85e+02,-1.96e+04,-1.95e+03,2.30e+02,3.66e+04
3639,-6.81e+03,-1.40e+04,-2.23e+03,-1.44e+04,1.22e+03,9.46e+01,2.71e+04
3640,-3.33e+03,-6.73e+03,-1.53e+03,-1.72e+04,6.17e+02,-1.26e+03,3.02e+04
3641,-1.49e+03,-1.35e+04,1.29e+03,-1.57e+04,-2.92e+03,2.30e+02,3.08e+04
3642,-3.40e+03,-1.26e+04,-7.67e+02,-8.67e+03,1.11e+03,9.46e+01,1.86e+04
3643,-6.27e+03,-3.08e+04,-4.81e+03,-1.10e+04,-1.21e+03,-1.27e+03,3.18e+04
3644,4.27e+03,-2.96e+04,2.92e+03,-1.24e+04,2.71e+03,-1.30e+03,3.99e+04
3645,-4.47e+03,-2.28e+04,1.22e+03,-1.23e+04,-1.55e+03,2.07e+03,3.08e+04
3646,1.43e+05,4.47e+04,4.60e+04,-1.91e+04,3.06e+04,4.40e+03,1.16e+05
3647,3.50e+04,1.23e+04,1.07e+04,-6.38e+03,2.48e+03,-2.33e+03,2.67e+04
3648,3.74e+04,1.26e+04,5.11e+03,7.53e+03,3.55e+03,5.65e+03,3.40e+04
3649,7.73e+04,-1.02e+03,-1.21e+02,3.16e+03,1.12e+04,-8.66e+03,8.19e+04
3650,5.29e+04,1.75e+04,2.43e+03,1.58e+03,1.45e+03,2.64e+03,4.53e+04
3651,3.59e+04,1.20e+04,4.46e+03,-1.81e+04,1.30e+03,5.65e+03,4.35e+04
3652,9.41e+04,6.15e+03,7.05e+03,-1.56e+04,9.21e+03,-8.66e+03,9.41e+04
3653,1.09e+05,3.60e+03,4.63e+03,-1.76e+03,5.41e+03,9.11e+03,1.07e+05
3654,3.32e+04,3.49e+03,1.28e+03,-6.71e+02,1.67e+03,-7.54e+03,3.36e+04
3655,7.46e+04,9.23e+03,1.12e+04,-1.06e+04,1.37e+04,-2.21e+03,7.11e+04
3656,9.91e+04,-8.16e+02,2.08e+02,-1.94e+04,4.27e+02,9.11e+03,1.06e+05
3657,3.32e+04,3.52e+03,1.30e+03,-2.06e+04,5.59e+02,-7.54e+03,4.89e+04
3658,3.27e+04,7.56e+02,8.15e+02,-2.80e+03,1.95e+02,8.41e+03,3.54e+04
3659,1.01e+05,1.01e+03,2.15e+03,-4.26e+03,9.80e+02,-6.86e+03,1.00e+05
3660,6.73e+04,2.30e+03,7.14e+02,-1.21e+04,-8.25e+03,8.12e+02,7.05e+04
3661,3.09e+04,-2.19e+01,3.77e+01,-2.02e+04,-1.59e+02,8.41e+03,4.89e+04
3662,9.43e+04,-1.75e+03,-6.07e+02,-1.98e+04,-4.17e+02,-6.86e+03,1.02e+05
3663,9.26e+04,2.76e+02,1.41e+03,-4.68e+03,-8.44e+01,7.65e+03,9.30e+04
3664,3.17e+04,1.22e+03,8.38e+02,-4.34e+03,-5.05e+00,-6.49e+03,3.35e+04
3665,6.26e+04,1.06e+02,7.07e+01,-1.21e+04,7.91e+03,1.14e+03,6.73e+04
3666,8.69e+04,-2.16e+03,-1.02e+03,-2.03e+04,-6.66e+02,7.65e+03,9.62e+04
3667,2.97e+04,3.31e+02,-5.11e+01,-1.95e+04,-1.82e+02,-6.49e+03,4.62e+04
3668,2.90e+04,5.41e+02,6.00e+02,-5.96e+03,-1.60e+02,7.00e+03,3.26e+04
3669,8.79e+04,8.09e+02,1.45e+03,-4.84e+03,-3.89e+02,-6.29e+03,8.79e+04
3670,5.78e+04,-8.11e+02,8.49e+02,-1.29e+04,-7.88e+03,6.56e+01,6.34e+04
3671,2.71e+04,-2.67e+02,-2.07e+02,-2.04e+04,-1.32e+02,7.00e+03,4.63e+04
3672,8.15e+04,-1.93e+03,-1.29e+03,-1.89e+04,-4.06e+02,-6.29e+03,9.00e+04
3673,8.08e+04,4.32e+02,1.27e+03,-6.81e+03,-4.07e+02,6.42e+03,8.16e+04
3674,2.74e+04,1.00e+03,7.14e+02,-5.42e+03,-9.44e+01,-5.91e+03,3.00e+04
3675,5.53e+04,1.01e+03,-3.64e+02,-1.28e+04,6.71e+03,8.06e+02,6.04e+04
3676,7.48e+04,-2.15e+03,-1.31e+03,-2.00e+04,-5.08e+02,6.42e+03,8.47e+04
3677,2.53e+04,9.84e+01,-1.89e+02,-1.84e+04,-1.04e+02,-5.91e+03,4.20e+04
3678,2.50e+04,6.02e+02,6.11e+02,-7.60e+03,-1.46e+02,5.76e+03,2.95e+04
3679,7.49e+04,8.95e+02,1.40e+03,-5.92e+03,-4.12e+02,-5.46e+03,7.51e+04
3680,4.89e+04,-1.48e+03,6.66e+02,-1.31e+04,-6.72e+03,-2.81e+02,5.55e+04
3681,2.30e+04,-2.68e+02,-2.60e+02,-1.96e+04,-8.62e+01,5.76e+03,4.23e+04
3682,6.85e+04,-1.84e+03,-1.34e+03,-1.78e+04,-3.01e+02,-5.46e+03,7.72e+04
3683,6.82e+04,6.27e+02,1.30e+03,-8.15e+03,-3.93e+02,5.30e+03,6.93e+04
3684,2.30e+04,9.01e+02,6.68e+02,-6.52e+03,-8.44e+01,-5.03e+03,2.64e+04
3685,4.70e+04,1.34e+03,-3.21e+02,-1.30e+04,5.64e+03,6.45e+02,5.26e+04
3686,6.20e+04,-2.03e+03,-1.36e+03,-1.90e+04,-4.43e+02,5.30e+03,7.23e+04
3687,2.09e+04,-4.63e+00,-2.38e+02,-1.74e+04,-8.24e+01,-5.03e+03,3.77e+04
3688,2.08e+04,6.20e+02,5.88e+02,-8.80e+03,-1.29e+02,4.68e+03,2.65e+04
3689,6.19e+04,1.01e+03,1.39e+03,-7.00e+03,-3.87e+02,-4.50e+03,6.24e+04
3690,4.01e+04,-1.60e+03,5.76e+02,-1.31e+04,-5.58e+03,-3.90e+02,4.76e+04
3691,1.87e+04,-2.70e+02,-3.01e+02,-1.85e+04,-7.32e+01,4.68e+03,3.82e+04
3692,5.55e+04,-1.73e+03,-1.34e+03,-1.67e+04,-2.84e+02,-4.50e+03,6.45e+04
3693,5.53e+04,8.67e+02,1.32e+03,-9.25e+03,-3.79e+02,4.23e+03,5.70e+04
3694,1.86e+04,8.74e+02,6.14e+02,-7.60e+03,-9.04e+01,-4.04e+03,2.33e+04
3695,3.84e+04,1.47e+03,-3.16e+02,-1.30e+04,4.54e+03,6.02e+02,4.47e+04
3696,4.90e+04,-1.81e+03,-1.36e+03,-1.79e+04,-3.99e+02,4.23e+03,5.98e+04
3697,1.65e+04,-5.06e+01,-3.11e+02,-1.63e+04,-8.04e+01,-4.04e+03,3.35e+04
3698,1.63e+04,8.05e+02,5.60e+02,-9.81e+03,-8.16e+01,3.66e+03,2.39e+04
3699,4.89e+04,1.27e+03,1.39e+03,-7.99e+03,-3.62e+02,-3.52e+03,4.99e+04
3700,3.14e+04,-1.45e+03,5.21e+02,-1.30e+04,-4.45e+03,-4.42e+02,3.99e+04
3701,1.40e+04,-1.64e+02,-4.09e+02,-1.73e+04,-2.92e+01,3.66e+03,3.39e+04
3702,4.25e+04,-1.46e+03,-1.34e+03,-1.55e+04,-2.57e+02,-3.52e+03,5.18e+04
3703,4.23e+04,1.45e+03,1.39e+03,-1.01e+04,-2.84e+02,3.21e+03,4.48e+04
3704,1.40e+04,1.15e+03,5.49e+02,-8.49e+03,-7.01e+01,-3.00e+03,2.04e+04
3705,2.96e+04,1.80e+03,-2.94e+02,-1.28e+04,3.51e+03,6.40e+02,3.70e+04
3706,3.59e+04,-1.29e+03,-1.35e+03,-1.64e+04,-2.83e+02,3.21e+03,4.71e+04
3707,1.16e+04,1.05e+02,-4.99e+02,-1.49e+04,-6.51e+01,-3.00e+03,2.89e+04
3708,1.10e+04,1.59e+03,6.18e+02,-1.04e+04,1.03e+02,2.83e+03,2.12e+04
3709,3.60e+04,1.96e+03,1.42e+03,-8.61e+03,-2.16e+02,-2.62e+03,3.77e+04
3710,2.24e+04,-8.60e+02,4.41e+02,-1.27e+04,-3.32e+03,-5.00e+02,3.20e+04
3711,7.87e+03,2.50e+02,-7.23e+02,-1.58e+04,6.08e+01,2.83e+03,2.90e+04
3712,2.96e+04,-7.74e+02,-1.32e+03,-1.38e+04,-1.79e+02,-2.62e+03,3.91e+04
3713,2.85e+04,2.62e+03,1.66e+03,-1.04e+04,4.31e+01,2.39e+03,3.22e+04
3714,8.44e+03,2.09e+03,6.27e+02,-8.74e+03,1.66e+02,-1.82e+03,1.71e+04
3715,2.01e+04,2.85e+03,-1.30e+02,-1.21e+04,2.75e+03,8.72e+02,2.87e+04
3716,2.13e+04,-4.55e+02,-1.42e+03,-1.48e+04,-2.21e+02,2.39e+03,3.42e+04
3717,4.99e+03,6.08e+02,-8.51e+02,-1.32e+04,3.11e+01,-1.82e+03,2.37e+04
3718,3.32e+03,2.48e+03,1.09e+03,-1.05e+04,3.38e+02,2.43e+03,1.87e+04
3719,2.23e+04,2.29e+03,1.54e+03,-8.85e+03,2.46e+02,-1.90e+03,2.58e+04
3720,1.17e+04,-1.78e+02,4.23e+02,-1.20e+04,-2.22e+03,-4.01e+02,2.41e+04
3721,-1.86e+03,2.61e+02,-1.13e+03,-1.50e+04,-1.84e+02,2.43e+03,2.64e+04
3722,1.49e+04,-8.89e+02,-1.64e+03,-1.27e+04,-1.58e+02,-1.90e+03,2.75e+04
3723,1.02e+04,-5.21e+02,2.01e+03,-1.29e+04,1.07e+02,2.36e+03,2.47e+04
3724,1.71e+03,4.36e+02,1.51e+03,-8.98e+03,1.43e+03,2.93e+02,1.58e+04
3725,8.28e+03,3.52e+03,2.17e+02,-1.18e+04,2.03e+03,1.33e+03,2.21e+04
3726,-1.66e+03,-5.59e+03,-3.05e+03,-2.08e+04,-9.02e+02,2.36e+03,3.65e+04
3727,-2.15e+03,-1.22e+03,-1.51e+02,-1.22e+04,1.20e+03,2.93e+02,2.13e+04
3728,-4.87e+03,-1.96e+04,-1.54e+03,-1.57e+04,-1.95e+03,1.48e+03,3.21e+04
3729,6.26e+03,-1.19e+04,1.48e+03,-1.35e+04,3.86e+03,1.79e+03,2.94e+04
3730,-7.09e+03,-1.44e+04,-2.15e+03,-1.67e+04,-8.26e+00,3.23e+03,3.14e+04
3731,-3.92e+03,-1.92e+04,-1.13e+03,-1.18e+04,-2.92e+03,1.48e+03,2.71e+04
3732,-9.42e+02,-1.50e+04,-1.61e+03,-2.11e+04,5.32e+03,1.79e+03,4.02e+04
3733,6.64e+03,-7.13e+04,3.98e+02,-2.42e+04,-1.02e+04,5.85e+03,8.83e+04
3734,-6.55e+03,-5.48e+04,-7.90e+03,-9.81e+03,2.71e+03,6.10e+02,5.08e+04
3735,-1.25e+03,-3.62e+04,-3.49e+03,-1.54e+04,1.02e+03,-4.36e+03,4.38e+04
3736,1.44e+05,4.65e+04,4.68e+04,-2.37e+04,3.06e+04,1.89e+03,1.18e+05
3737,2.48e+05,7.78e+04,8.45e+04,-5.22e+04,1.51e+04,-3.57e+03,1.92e+05
3738,2.35e+05,1.76e+04,2.91e+04,-4.53e+03,2.03e+04,1.29e+04,2.16e+05
3739,7.81e+04,8.67e+02,6.89e+02,-6.37e+03,1.12e+04,-1.11e+04,8.28e+04
3740,1.59e+05,2.43e+04,4.05e+04,-2.46e+04,3.79e+04,-9.38e+03,1.51e+05
3741,1.89e+05,-2.23e+03,9.25e+03,-1.47e+04,8.11e+03,1.29e+04,1.89e+05
3742,9.49e+04,8.04e+03,7.86e+03,-2.52e+04,9.21e+03,-1.11e+04,1.00e+05
3743,1.09e+05,3.01e+03,4.37e+03,3.02e+03,5.41e+03,9.66e+03,1.07e+05
3744,1.90e+05,4.02e+03,8.95e+03,-2.27e+03,6.90e+03,-7.50e+03,1.84e+05
3745,1.53e+05,9.94e+03,6.49e+03,-9.57e+03,-4.70e+03,2.05e+03,1.46e+05
3746,9.88e+04,-1.42e+03,-4.88e+01,-1.47e+04,4.27e+02,9.66e+03,1.04e+05
3747,1.71e+05,-4.24e+03,6.97e+02,-1.46e+04,-7.64e+01,-7.50e+03,1.75e+05
3748,1.69e+05,1.53e+03,8.46e+03,2.21e+03,-5.77e+02,6.99e+03,1.65e+05
3749,1.01e+05,2.13e+03,2.63e+03,1.80e+03,9.80e+02,-7.32e+03,9.97e+04
3750,1.34e+05,-1.61e+03,9.96e+02,-5.93e+03,9.79e+03,1.73e+03,1.36e+05
3751,1.58e+05,-3.22e+03,3.71e+03,-1.30e+04,1.18e+03,6.99e+03,1.60e+05
3752,9.48e+04,-6.22e+02,-1.24e+02,-1.37e+04,-4.17e+02,-7.32e+03,9.89e+04
3753,9.30e+04,1.31e+03,1.85e+03,1.91e+03,-8.44e+01,7.42e+03,9.24e+04
3754,1.58e+05,1.47e+03,3.41e+03,2.18e+03,-5.31e+01,-7.11e+03,1.56e+05
3755,1.26e+05,-2.61e+02,1.21e+03,-6.09e+03,-8.56e+03,-6.79e+02,1.26e+05
3756,8.73e+04,-1.13e+03,-5.81e+02,-1.37e+04,-6.66e+02,7.42e+03,9.23e+04
3757,1.47e+05,-3.09e+03,-1.15e+03,-1.26e+04,-1.50e+03,-7.11e+03,1.52e+05
3758,1.47e+05,1.17e+03,6.40e+03,4.61e+02,-2.49e+03,5.79e+03,1.43e+05
3759,8.84e+04,2.02e+03,1.97e+03,1.73e+03,-3.89e+02,-6.70e+03,8.73e+04
3760,1.17e+05,4.36e+02,-2.59e+02,-5.71e+03,6.72e+03,1.00e+03,1.18e+05
3761,1.37e+05,-2.99e+03,2.24e+03,-1.26e+04,3.70e+02,5.79e+03,1.40e+05
3762,8.20e+04,-7.19e+02,-7.69e+02,-1.23e+04,-4.06e+02,-6.70e+03,8.63e+04
3763,8.12e+04,1.41e+03,1.69e+03,3.03e+02,-4.07e+02,6.14e+03,8.04e+04
3764,1.36e+05,1.58e+03,2.75e+03,1.28e+03,-8.56e+02,-6.12e+03,1.34e+05
3765,1.08e+05,-1.10e+03,1.00e+03,-6.08e+03,-7.72e+03,-9.91e+02,1.10e+05
3766,7.52e+04,-1.17e+03,-8.91e+02,-1.28e+04,-5.08e+02,6.14e+03,8.01e+04
3767,1.26e+05,-2.80e+03,-1.63e+03,-1.15e+04,-1.42e+03,-6.12e+03,1.30e+05
3768,1.25e+05,1.39e+03,5.66e+03,-8.06e+02,-2.50e+03,4.90e+03,1.22e+05
3769,7.54e+04,1.94e+03,1.84e+03,7.31e+02,-4.12e+02,-5.78e+03,7.42e+04
3770,1.00e+05,8.42e+02,-5.89e+02,-5.91e+03,5.54e+03,9.45e+02,1.01e+05
3771,1.16e+05,-2.87e+03,1.40e+03,-1.18e+04,1.58e+02,4.90e+03,1.18e+05
3772,6.90e+04,-8.01e+02,-8.95e+02,-1.12e+04,-3.01e+02,-5.78e+03,7.32e+04
3773,6.86e+04,1.46e+03,1.65e+03,-9.37e+02,-3.93e+02,5.06e+03,6.76e+04
3774,1.14e+05,1.69e+03,2.60e+03,2.04e+02,-9.54e+02,-5.10e+03,1.12e+05
3775,9.11e+04,-1.25e+03,9.63e+02,-6.08e+03,-6.58e+03,-1.06e+03,9.26e+04
3776,6.24e+04,-1.20e+03,-1.00e+03,-1.18e+04,-4.43e+02,5.06e+03,6.72e+04
3777,1.04e+05,-2.68e+03,-1.77e+03,-1.05e+04,-1.34e+03,-5.10e+03,1.08e+05
3778,1.04e+05,1.56e+03,5.02e+03,-1.86e+03,-2.27e+03,4.00e+03,1.01e+05
3779,6.23e+04,1.84e+03,1.75e+03,-3.57e+02,-3.87e+02,-4.76e+03,6.10e+04
3780,8.31e+04,9.54e+02,-6.58e+02,-5.98e+03,4.45e+03,9.41e+02,8.40e+04
3781,9.37e+04,-2.74e+03,7.16e+02,-1.08e+04,-6.14e+01,4.00e+03,9.68e+04
3782,5.59e+04,-8.97e+02,-9.86e+02,-1.01e+04,-2.84e+02,-4.76e+03,6.00e+04
3783,5.55e+04,1.48e+03,1.58e+03,-2.05e+03,-3.79e+02,4.03e+03,5.46e+04
3784,9.22e+04,1.81e+03,2.49e+03,-8.57e+02,-9.93e+02,-4.08e+03,9.03e+04
3785,7.37e+04,-1.24e+03,9.14e+02,-6.07e+03,-5.45e+03,-1.07e+03,7.52e+04
3786,4.93e+04,-1.20e+03,-1.10e+03,-1.07e+04,-3.99e+02,4.03e+03,5.42e+04
3787,8.20e+04,-2.55e+03,-1.86e+03,-9.36e+03,-1.27e+03,-4.08e+03,8.61e+04
3788,8.18e+04,1.74e+03,4.33e+03,-2.80e+03,-1.98e+03,3.11e+03,7.92e+04
3789,4.91e+04,1.80e+03,1.62e+03,-1.41e+03,-3.62e+02,-3.71e+03,4.79e+04
3790,6.57e+04,1.02e+03,-7.04e+02,-5.95e+03,3.39e+03,9.50e+02,6.66e+04
3791,7.18e+04,-2.53e+03,6.71e+01,-9.62e+03,-2.03e+02,3.11e+03,7.52e+04
3792,4.28e+04,-9.30e+02,-1.11e+03,-8.88e+03,-2.57e+02,-3.71e+03,4.69e+04
3793,4.23e+04,1.62e+03,1.46e+03,-2.95e+03,-2.84e+02,3.10e+03,4.15e+04
3794,7.06e+04,1.93e+03,2.28e+03,-1.75e+03,-9.22e+02,-3.12e+03,6.88e+04
3795,5.63e+04,-1.09e+03,7.82e+02,-5.91e+03,-4.29e+03,-1.04e+03,5.79e+04
3796,3.59e+04,-1.12e+03,-1.28e+03,-9.25e+03,-2.83e+02,3.10e+03,4.08e+04
3797,6.09e+04,-2.22e+03,-1.87e+03,-7.99e+03,-1.08e+03,-3.12e+03,6.47e+04
3798,6.04e+04,1.93e+03,3.63e+03,-3.29e+03,-1.54e+03,2.34e+03,5.81e+04
3799,3.60e+04,1.93e+03,1.40e+03,-2.05e+03,-2.16e+02,-2.68e+03,3.48e+04
3800,4.85e+04,1.19e+03,-7.15e+02,-5.52e+03,2.55e+03,9.76e+02,4.94e+04
3801,5.11e+04,-2.02e+03,-3.18e+02,-7.94e+03,-2.05e+02,2.34e+03,5.43e+04
3802,2.96e+04,-8.09e+02,-1.33e+03,-7.22e+03,-1.79e+02,-2.68e+03,3.34e+04
3803,2.83e+04,2.10e+03,1.44e+03,-2.87e+03,4.31e+01,2.64e+03,2.74e+04
3804,5.09e+04,1.82e+03,2.00e+03,-1.81e+03,-4.99e+02,-2.50e+03,4.93e+04
3805,3.95e+04,-7.39e+02,5.77e+02,-5.12e+03,-3.23e+03,-9.35e+02,4.10e+04
3806,2.11e+04,-9.81e+02,-1.64e+03,-7.25e+03,-2.21e+02,2.64e+03,2.61e+04
3807,4.35e+04,-1.35e+03,-1.16e+03,-5.91e+03,-1.04e+03,-2.50e+03,4.62e+04
3808,4.20e+04,1.53e+03,3.55e+03,-2.39e+03,-1.34e+03,2.27e+03,4.00e+04
3809,2.23e+04,2.09e+03,1.45e+03,-8.63e+02,2.46e+02,-1.87e+03,2.08e+04
3810,3.24e+04,1.80e+03,-5.38e+02,-3.83e+03,2.34e+03,1.08e+03,3.28e+04
3811,3.66e+04,-8.06e+02,1.22e+03,-6.11e+03,-1.56e+03,2.27e+03,3.82e+04
3812,1.48e+04,-1.08e+03,-1.73e+03,-4.72e+03,-1.58e+02,-1.87e+03,1.85e+04
3813,1.12e+04,1.78e+03,3.00e+03,5.62e+01,1.07e+02,3.46e+03,1.07e+04
3814,3.77e+04,4.19e+01,4.21e+03,5.45e+01,-6.35e+02,-2.80e+03,3.61e+04
3815,2.54e+04,-8.44e+02,2.57e+03,-2.94e+03,-4.02e+03,-6.56e+02,2.62e+04
3816,-6.77e+02,-3.29e+03,-2.07e+03,-7.84e+03,-9.02e+02,3.46e+03,1.51e+04
3817,3.36e+04,-1.71e+03,2.46e+03,-5.67e+03,-3.58e+03,-2.80e+03,3.57e+04
3818,3.88e+04,-8.52e+03,1.20e+04,-2.49e+03,-9.21e+03,6.13e+03,4.56e+04
3819,9.65e+03,-3.98e+03,4.87e+03,1.63e+03,3.86e+03,9.50e+01,1.40e+04
3820,1.56e+04,1.53e+03,-4.82e+02,-2.68e+03,2.59e+03,1.43e+03,1.67e+04
3821,2.06e+04,-1.63e+04,4.20e+03,-3.86e+04,-1.31e+04,6.13e+03,7.82e+04
3822,2.45e+03,-7.07e+03,1.78e+03,-6.00e+03,5.32e+03,9.50e+01,1.67e+04
3823,-1.09e+04,-1.12e+05,-1.72e+04,-8.28e+03,-1.02e+04,1.66e+03,1.01e+05
3824,1.68e+04,-9.70e+04,-3.78e+03,-2.66e+04,2.31e+03,2.98e+03,1.15e+05
3825,3.29e+03,-6.40e+04,2.19e+02,-2.16e+04,-7.61e+03,1.60e+04,8.17e+04
3826,-1.09e+05,-3.16e+04,-3.28e+04,-2.23e+04,-1.59e+04,2.14e+03,9.07e+04
3827,-2.49e+05,-7.99e+04,-8.58e+04,-5.37e+04,4.65e+03,-2.70e+03,1.90e+05
3828,-1.93e+05,-9.43e+03,-2.66e+04,-5.82e+03,-1.01e+04,1.14e+04,1.78e+05
3829,-7.79e+04,-2.66e+03,-6.61e+03,-6.48e+03,-7.16e+03,-7.91e+03,7.64e+04
3830,-1.34e+05,-1.95e+04,-3.36e+04,-1.95e+04,-2.54e+04,-6.66e+03,1.22e+05
3831,-1.81e+05,-4.36e+03,-2.16e+04,-1.58e+04,-3.02e+03,1.14e+04,1.72e+05
3832,-9.46e+04,-9.82e+03,-1.38e+04,-2.40e+04,-6.84e+03,-7.91e+03,9.45e+04
3833,-1.05e+05,-2.71e+03,-6.52e+03,5.49e+02,-4.50e+03,7.99e+03,1.02e+05
3834,-1.86e+05,-4.70e+03,-1.73e+04,-2.86e+03,-3.08e+03,-7.28e+03,1.76e+05
3835,-1.49e+05,-1.14e+04,-1.77e+04,-1.05e+04,7.85e+03,3.22e+03,1.37e+05
3836,-1.01e+05,-8.53e+02,-4.66e+03,-1.54e+04,-1.25e+03,7.99e+03,1.03e+05
3837,-1.70e+05,2.19e+03,-1.04e+04,-1.42e+04,-1.30e+03,-7.28e+03,1.69e+05
3838,-1.71e+05,-2.89e+03,-7.84e+03,2.36e+03,-2.97e+03,7.73e+03,1.67e+05
3839,-1.01e+05,-1.71e+03,-3.64e+03,9.90e+02,-6.38e+02,-7.14e+03,9.87e+04
3840,-1.37e+05,-5.90e+02,-7.62e+03,-7.03e+03,-1.13e+04,4.61e+02,1.35e+05
3841,-1.60e+05,2.04e+03,-2.92e+03,-1.32e+04,1.10e+02,7.73e+03,1.62e+05
3842,-9.49e+04,7.02e+02,-1.22e+03,-1.39e+04,1.70e+02,-7.14e+03,9.85e+04
3843,-9.51e+04,-2.34e+03,-2.96e+03,2.11e+03,8.22e+00,7.08e+03,9.33e+04
3844,-1.59e+05,-1.85e+03,-5.41e+03,2.24e+03,5.05e+02,-7.13e+03,1.56e+05
3845,-1.28e+05,-8.70e+02,-3.57e+03,-5.62e+03,8.81e+03,-6.53e+02,1.27e+05
3846,-8.88e+04,3.68e+02,-2.52e+02,-1.29e+04,3.53e+02,7.08e+03,9.25e+04
3847,-1.48e+05,2.77e+03,-7.95e+02,-1.23e+04,8.02e+02,-7.13e+03,1.51e+05
3848,-1.47e+05,-1.85e+03,-3.72e+03,1.79e+03,2.99e+02,6.57e+03,1.45e+05
3849,-8.88e+04,-1.93e+03,-2.21e+03,1.81e+03,3.18e+02,-6.51e+03,8.75e+04
3850,-1.18e+05,-5.00e+02,-1.57e+03,-5.46e+03,-7.36e+03,8.51e+02,1.18e+05
3851,-1.37e+05,2.58e+03,7.11e+02,-1.21e+04,1.13e+03,6.57e+03,1.41e+05
3852,-8.23e+04,8.79e+02,6.00e+02,-1.20e+04,4.61e+02,-6.51e+03,8.63e+04
3853,-8.20e+04,-2.10e+03,-2.16e+03,1.26e+03,4.88e+02,5.95e+03,8.06e+04
3854,-1.36e+05,-1.82e+03,-3.79e+03,1.61e+03,9.80e+02,-6.23e+03,1.34e+05
3855,-1.10e+05,3.15e+00,-1.83e+03,-5.28e+03,7.94e+03,-1.08e+03,1.10e+05
3856,-7.56e+04,6.33e+02,5.77e+02,-1.17e+04,3.94e+02,5.95e+03,7.96e+04
3857,-1.26e+05,2.60e+03,6.28e+02,-1.12e+04,9.24e+02,-6.23e+03,1.30e+05
3858,-1.25e+05,-1.80e+03,-3.05e+03,7.50e+02,6.90e+02,5.54e+03,1.23e+05
3859,-7.55e+04,-1.85e+03,-1.92e+03,1.04e+03,2.99e+02,-5.61e+03,7.43e+04
3860,-1.00e+05,-5.99e+02,-5.94e+02,-5.29e+03,-6.00e+03,8.60e+02,1.01e+05
3861,-1.15e+05,2.56e+03,1.31e+03,-1.10e+04,1.15e+03,5.54e+03,1.19e+05
3862,-6.90e+04,9.18e+02,8.45e+02,-1.07e+04,3.68e+02,-5.61e+03,7.30e+04
3863,-6.89e+04,-1.97e+03,-1.98e+03,2.10e+02,4.71e+02,4.92e+03,6.75e+04
3864,-1.14e+05,-1.85e+03,-3.36e+03,6.31e+02,9.87e+02,-5.22e+03,1.12e+05
3865,-9.20e+04,1.74e+02,-1.50e+03,-5.20e+03,6.73e+03,-1.13e+03,9.26e+04
3866,-6.25e+04,7.73e+02,7.58e+02,-1.06e+04,3.70e+02,4.92e+03,6.64e+04
3867,-1.04e+05,2.49e+03,9.80e+02,-1.01e+04,9.05e+02,-5.22e+03,1.08e+05
3868,-1.03e+05,-1.86e+03,-2.87e+03,-3.09e+02,7.58e+02,4.53e+03,1.01e+05
3869,-6.23e+04,-1.75e+03,-1.82e+03,4.02e+01,2.78e+02,-4.61e+03,6.10e+04
3870,-8.30e+04,-6.11e+02,-3.47e+02,-5.26e+03,-4.85e+03,8.64e+02,8.34e+04
3871,-9.31e+04,2.50e+03,1.49e+03,-9.95e+03,1.13e+03,4.53e+03,9.70e+04
3872,-5.59e+04,1.01e+03,9.33e+02,-9.65e+03,3.38e+02,-4.61e+03,5.98e+04
3873,-5.58e+04,-1.83e+03,-1.90e+03,-8.65e+02,4.64e+02,3.93e+03,5.44e+04
3874,-9.25e+04,-1.90e+03,-3.16e+03,-4.29e+02,9.91e+02,-4.18e+03,9.02e+04
3875,-7.45e+04,2.56e+02,-1.35e+03,-5.19e+03,5.58e+03,-1.12e+03,7.52e+04
3876,-4.94e+04,9.16e+02,8.49e+02,-9.57e+03,4.02e+02,3.93e+03,5.33e+04
3877,-8.23e+04,2.45e+03,1.19e+03,-9.05e+03,9.36e+02,-4.18e+03,8.59e+04
3878,-8.15e+04,-1.93e+03,-2.84e+03,-1.43e+03,8.52e+02,3.52e+03,7.94e+04
3879,-4.91e+04,-1.62e+03,-1.80e+03,-1.04e+03,2.99e+02,-3.58e+03,4.78e+04
3880,-6.55e+04,-5.78e+02,-2.17e+02,-5.29e+03,-3.67e+03,8.99e+02,6.60e+04
3881,-7.12e+04,2.49e+03,1.58e+03,-9.00e+03,1.19e+03,3.52e+03,7.51e+04
3882,-4.26e+04,1.16e+03,9.83e+02,-8.65e+03,3.58e+02,-3.58e+03,4.66e+04
3883,-4.26e+04,-1.63e+03,-1.92e+03,-2.08e+03,5.38e+02,2.89e+03,4.13e+04
3884,-7.03e+04,-1.97e+03,-3.15e+03,-1.64e+03,1.09e+03,-3.08e+03,6.81e+04
3885,-5.69e+04,3.67e+02,-1.33e+03,-5.30e+03,4.49e+03,-1.11e+03,5.78e+04
3886,-3.61e+04,1.15e+03,8.59e+02,-8.74e+03,5.12e+02,2.89e+03,4.04e+04
3887,-5.97e+04,2.58e+03,1.39e+03,-8.19e+03,1.07e+03,-3.08e+03,6.36e+04
3888,-5.90e+04,-2.06e+03,-2.98e+03,-2.89e+03,1.05e+03,2.43e+03,5.69e+04
3889,-3.58e+04,-1.40e+03,-1.89e+03,-2.45e+03,4.12e+02,-2.45e+03,3.47e+04
3890,-4.76e+04,-4.93e+02,-1.53e+02,-5.60e+03,-2.31e+03,9.73e+02,4.84e+04
3891,-4.78e+04,2.72e+03,1.80e+03,-8.36e+03,1.33e+03,2.43e+03,5.24e+04
3892,-2.91e+04,1.47e+03,9.76e+02,-7.99e+03,4.52e+02,-2.45e+03,3.36e+04
3893,-2.93e+04,-1.37e+03,-1.93e+03,-3.92e+03,6.70e+02,1.67e+03,2.86e+04
3894,-4.66e+04,-2.24e+03,-3.14e+03,-3.41e+03,1.38e+03,-1.77e+03,4.45e+04
3895,-3.85e+04,5.72e+02,-1.34e+03,-5.86e+03,3.31e+03,-1.14e+03,4.00e+04
3896,-2.26e+04,1.49e+03,9.34e+02,-8.28e+03,5.71e+02,1.67e+03,2.80e+04
3897,-3.46e+04,2.93e+03,2.02e+03,-7.55e+03,1.33e+03,-1.77e+03,3.95e+04
3898,-3.39e+04,-2.58e+03,-2.65e+03,-5.08e+03,1.20e+03,1.11e+03,3.26e+04
3899,-2.19e+04,-1.50e+03,-1.73e+03,-4.70e+03,6.92e+02,-1.11e+03,2.20e+04
3900,-2.81e+04,-5.06e+02,2.11e+02,-6.47e+03,-5.87e+02,1.12e+03,3.02e+04
3901,-2.13e+04,2.82e+03,2.75e+03,-7.30e+03,1.00e+03,1.11e+03,2.73e+04
3902,-1.49e+04,1.49e+03,1.26e+03,-7.19e+03,6.29e+02,-1.11e+03,2.06e+04
3903,-1.48e+04,-2.33e+03,-1.06e+03,-6.23e+03,3.79e+02,4.15e+02,1.71e+04
3904,-2.02e+04,-3.09e+03,-1.70e+03,-5.24e+03,1.39e+03,-4.43e+02,2.01e+04
3905,-1.79e+04,2.62e+02,-3.56e+02,-6.45e+03,1.57e+03,-1.19e+03,2.13e+04
3906,-7.83e+03,6.58e+02,1.93e+03,-5.68e+03,2.61e+01,4.15e+02,1.35e+04
3907,-8.73e+03,1.81e+03,3.20e+03,-4.98e+03,1.15e+03,-4.43e+02,1.44e+04
3908,-8.43e+03,-3.05e+03,-1.27e+02,-4.95e+03,8.91e+02,9.04e+01,1.14e+04
3909,-7.32e+03,-3.52e+03,3.60e+01,-5.40e+03,5.85e+02,-2.47e+02,1.14e+04
3910,-7.56e+03,-1.15e+03,1.95e+03,-5.23e+03,5.20e+02,9.61e+02,1.25e+04
3911,-1.71e+03,-1.79e+02,2.75e+03,-1.67e+03,5.39e+01,9.04e+01,4.88e+03
3912,-1.85e+03,-1.18e+03,2.38e+03,-1.30e+03,4.32e+02,-2.47e+02,4.61e+03
3913,-3.11e+02,-2.00e+03,2.70e+03,-1.82e+03,-2.43e+02,-3.88e+01,5.21e+03
3914,-1.52e+03,-1.60e+03,2.05e+03,-1.34e+03,2.34e+02,-2.50e+02,4.33e+03
3915,-1.00e+03,-9.23e+02,2.33e+03,-1.60e+03,2.89e+02,-3.88e+02,4.38e+03
3916,-1.09e+05,-2.95e+04,-3.19e+04,-1.80e+04,-1.59e+04,4.88e+03,8.87e+04
3917,-3.47e+04,-1.22e+04,-1.08e+04,-6.98e+03,9.17e+02,-1.84e+03,2.64e+04
3918,-2.76e+04,-7.76e+03,-3.93e+03,2.42e+03,-1.80e+03,5.39e+03,2.45e+04
3919,-7.68e+04,-2.59e+02,-5.58e+03,1.60e+03,-7.16e+03,-7.55e+03,7.63e+04
3920,-4.69e+04,-1.14e+04,-6.10e+03,-3.02e+03,2.90e+03,2.49e+03,3.94e+04
3921,-3.34e+04,-1.02e+04,-6.42e+03,-1.98e+04,-8.94e+02,5.39e+03,4.37e+04
3922,-9.36e+04,-7.42e+03,-1.27e+04,-1.60e+04,-6.84e+03,-7.55e+03,8.98e+04
3923,-1.05e+05,-2.84e+03,-6.58e+03,-3.56e+03,-4.50e+03,8.99e+03,1.02e+05
3924,-3.26e+04,-3.71e+03,-2.58e+03,-1.69e+03,-1.10e+03,-6.99e+03,3.20e+04
3925,-7.27e+04,-9.85e+03,-1.26e+04,-1.13e+04,-1.28e+04,-2.10e+03,6.83e+04
3926,-1.01e+05,-9.81e+02,-4.72e+03,-1.95e+04,-1.25e+03,8.99e+03,1.05e+05
3927,-3.33e+04,-4.04e+03,-2.91e+03,-2.07e+04,-7.97e+02,-6.99e+03,4.83e+04
3928,-3.39e+04,-1.70e+03,-1.66e+03,-3.27e+03,-4.64e+02,8.21e+03,3.57e+04
3929,-1.00e+05,-8.42e+02,-3.26e+03,-4.67e+03,-6.38e+02,-6.88e+03,9.92e+04
3930,-6.80e+04,-3.36e+03,-3.02e+03,-1.21e+04,8.23e+03,1.16e+03,6.96e+04
3931,-3.20e+04,-8.75e+02,-8.32e+02,-1.99e+04,4.51e+01,8.21e+03,4.86e+04
3932,-9.46e+04,1.57e+03,-8.47e+02,-1.95e+04,1.70e+02,-6.88e+03,1.01e+05
3933,-9.46e+04,-1.04e+03,-2.40e+03,-4.27e+03,8.22e+00,7.55e+03,9.40e+04
3934,-3.20e+04,-1.37e+03,-1.09e+03,-4.34e+03,8.38e+01,-6.62e+03,3.37e+04
3935,-6.34e+04,-4.01e+02,-1.08e+03,-1.21e+04,-8.16e+03,8.93e+02,6.76e+04
3936,-8.82e+04,1.67e+03,3.04e+02,-1.93e+04,3.53e+02,7.55e+03,9.62e+04
3937,-2.99e+04,-4.53e+02,-1.73e+02,-1.92e+04,1.38e+02,-6.62e+03,4.60e+04
3938,-2.96e+04,-1.11e+03,-8.72e+02,-4.87e+03,1.12e+02,7.01e+03,3.22e+04
3939,-8.84e+04,-8.58e+02,-1.75e+03,-4.53e+03,3.18e+02,-6.39e+03,8.81e+04
3940,-5.90e+04,-1.08e+02,-9.60e+02,-1.21e+04,7.87e+03,-2.20e+01,6.36e+04
3941,-2.75e+04,-2.24e+02,1.77e+01,-1.90e+04,1.54e+02,7.01e+03,4.45e+04
3942,-8.18e+04,1.95e+03,1.06e+03,-1.83e+04,4.61e+02,-6.39e+03,8.98e+04
3943,-8.15e+04,-9.69e+02,-1.67e+03,-5.36e+03,4.88e+02,6.32e+03,8.15e+04
3944,-2.76e+04,-1.13e+03,-8.12e+02,-4.89e+03,1.17e+02,-5.95e+03,2.98e+04
3945,-5.48e+04,-5.17e+02,1.10e+02,-1.19e+04,-6.73e+03,7.58e+02,5.96e+04
3946,-7.51e+04,1.76e+03,1.06e+03,-1.83e+04,3.94e+02,6.32e+03,8.36e+04
3947,-2.54e+04,-2.05e+02,1.14e+02,-1.78e+04,9.44e+01,-5.95e+03,4.12e+04
3948,-2.52e+04,-9.85e+02,-7.56e+02,-5.96e+03,1.20e+02,5.78e+03,2.83e+04
3949,-7.51e+04,-9.22e+02,-1.52e+03,-5.30e+03,2.99e+02,-5.53e+03,7.50e+04
3950,-4.99e+04,4.14e+02,-5.93e+02,-1.19e+04,6.69e+03,-3.24e+02,5.51e+04
3951,-2.31e+04,-7.91e+01,1.51e+02,-1.79e+04,1.20e+02,5.78e+03,4.00e+04
3952,-6.86e+04,1.84e+03,1.24e+03,-1.71e+04,3.68e+02,-5.53e+03,7.68e+04
3953,-6.85e+04,-1.02e+03,-1.58e+03,-6.45e+03,4.71e+02,5.20e+03,6.87e+04
3954,-2.31e+04,-1.00e+03,-7.38e+02,-5.82e+03,8.80e+01,-5.04e+03,2.59e+04
3955,-4.62e+04,-6.88e+02,1.56e+02,-1.18e+04,-5.63e+03,6.18e+02,5.13e+04
3956,-6.21e+04,1.72e+03,1.16e+03,-1.73e+04,3.70e+02,5.20e+03,7.08e+04
3957,-2.10e+04,-8.62e+01,1.78e+02,-1.66e+04,6.80e+01,-5.04e+03,3.67e+04
3958,-2.09e+04,-8.69e+02,-7.11e+02,-7.06e+03,1.11e+02,4.69e+03,2.49e+04
3959,-6.19e+04,-9.77e+02,-1.49e+03,-6.31e+03,2.78e+02,-4.55e+03,6.22e+04
3960,-4.10e+04,5.67e+02,-4.99e+02,-1.19e+04,5.54e+03,-4.12e+02,4.69e+04
3961,-1.87e+04,3.72e+01,1.96e+02,-1.68e+04,1.18e+02,4.69e+03,3.57e+04
3962,-5.55e+04,1.78e+03,1.26e+03,-1.60e+04,3.38e+02,-4.55e+03,6.39e+04
3963,-5.54e+04,-1.03e+03,-1.55e+03,-7.57e+03,4.64e+02,4.15e+03,5.62e+04
3964,-1.87e+04,-8.37e+02,-7.03e+02,-6.88e+03,7.70e+01,-4.04e+03,2.26e+04
3965,-3.75e+04,-6.92e+02,1.56e+02,-1.18e+04,-4.52e+03,5.68e+02,4.32e+04
3966,-4.90e+04,1.72e+03,1.19e+03,-1.63e+04,4.02e+02,4.15e+03,5.83e+04
3967,-1.66e+04,6.92e+01,2.03e+02,-1.56e+04,6.76e+01,-4.04e+03,3.25e+04
3968,-1.65e+04,-6.28e+02,-7.06e+02,-8.22e+03,1.56e+02,3.63e+03,2.22e+04
3969,-4.88e+04,-9.15e+02,-1.50e+03,-7.46e+03,2.99e+02,-3.52e+03,4.97e+04
3970,-3.23e+04,7.27e+02,-4.83e+02,-1.19e+04,4.42e+03,-4.27e+02,3.92e+04
3971,-1.45e+04,2.33e+02,1.55e+02,-1.59e+04,1.71e+02,3.63e+03,3.18e+04
3972,-4.23e+04,1.87e+03,1.28e+03,-1.51e+04,3.58e+02,-3.52e+03,5.14e+04
3973,-4.23e+04,-8.01e+02,-1.56e+03,-8.89e+03,5.38e+02,3.10e+03,4.42e+04
3974,-1.44e+04,-4.37e+02,-7.27e+02,-8.14e+03,1.03e+02,-3.00e+03,2.04e+04
3975,-2.88e+04,-4.92e+02,1.42e+02,-1.20e+04,-3.31e+03,5.36e+02,3.59e+04
3976,-3.58e+04,1.98e+03,1.21e+03,-1.56e+04,5.12e+02,3.10e+03,4.64e+04
3977,-1.25e+04,4.00e+02,1.10e+02,-1.47e+04,1.02e+02,-3.00e+03,2.90e+04
3978,-1.27e+04,-1.98e+01,-7.48e+02,-9.77e+03,3.01e+02,2.51e+03,2.14e+04
3979,-3.54e+04,-5.59e+02,-1.53e+03,-8.98e+03,4.12e+02,-2.38e+03,3.80e+04
3980,-2.36e+04,1.20e+03,-5.31e+02,-1.23e+04,3.31e+03,-3.92e+02,3.26e+04
3981,-1.11e+04,6.49e+02,-7.89e+01,-1.54e+04,2.74e+02,2.51e+03,2.93e+04
3982,-2.87e+04,2.31e+03,1.33e+03,-1.45e+04,4.52e+02,-2.38e+03,3.98e+04
3983,-2.89e+04,-4.55e+02,-1.54e+03,-1.09e+04,6.70e+02,1.95e+03,3.39e+04
3984,-1.07e+04,2.36e+02,-7.72e+02,-1.00e+04,2.70e+02,-1.85e+03,2.06e+04
3985,-2.04e+04,-6.55e+01,8.80e+01,-1.28e+04,-1.88e+03,5.27e+02,3.03e+04
3986,-2.22e+04,2.41e+03,1.33e+03,-1.52e+04,5.71e+02,1.95e+03,3.59e+04
3987,-9.34e+03,8.42e+02,-1.65e+02,-1.45e+04,2.33e+02,-1.85e+03,2.72e+04
3988,-9.67e+03,-6.55e+01,-6.51e+02,-1.23e+04,2.46e+02,1.23e+03,2.33e+04
3989,-2.17e+04,-1.14e+03,-1.57e+03,-1.11e+04,6.92e+02,-1.02e+03,2.81e+04
3990,-1.53e+04,1.40e+03,-6.54e+02,-1.33e+04,2.02e+03,-4.57e+02,2.81e+04
3991,-8.47e+03,4.46e+02,-1.40e+02,-1.54e+04,4.28e+01,1.23e+03,2.82e+04
3992,-1.48e+04,1.84e+03,1.41e+03,-1.36e+04,6.29e+02,-1.02e+03,2.88e+04
3993,-1.55e+04,-3.90e+03,-1.73e+03,-1.28e+04,3.79e+02,6.71e+02,2.56e+04
3994,-6.98e+03,-2.13e+03,-4.54e+02,-1.23e+04,9.31e+02,-4.70e+02,2.22e+04
3995,-1.25e+04,-1.94e+03,-9.18e+01,-1.37e+04,-4.08e+02,9.41e+02,2.65e+04
3996,-8.50e+03,-9.10e+02,1.26e+03,-1.22e+04,2.61e+01,6.71e+02,2.30e+04
3997,-4.77e+03,-1.18e+03,4.92e+02,-1.28e+04,8.55e+02,-4.70e+02,2.27e+04
3998,-4.19e+03,-7.72e+03,2.07e+02,-1.28e+04,-7.23e+02,2.31e+02,2.33e+04
3999,-9.32e+03,-8.20e+03,-1.97e+03,-1.02e+04,5.85e+02,-2.41e+02,1.90e+04
4000,-5.96e+03,-3.67e+03,-4.05e+02,-1.20e+04,8.40e+02,-1.11e+03,2.14e+04
4001,-7.70e+02,-6.26e+03,1.67e+03,-7.10e+03,-8.34e+02,2.31e+02,1.42e+04
4002,-3.85e+03,-5.85e+03,3.76e+02,-6.10e+03,4.32e+02,-2.41e+02,1.19e+04
4003,-3.85e+03,-1.02e+04,-8.31e+02,-5.76e+03,-2.43e+02,-6.10e+02,1.31e+04
4004,1.87e+03,-1.02e+04,2.50e+03,-6.37e+03,9.84e+02,-1.02e+03,1.68e+04
4005,-1.95e+03,-7.63e+03,1.66e+03,-6.42e+03,-8.24e+02,3.30e+02,1.38e+04
4006,3.41e+04,1.02e+04,9.70e+03,-8.40e+03,4.66e+03,2.85e+03,2.97e+04
4007,-3.39e+04,-1.05e+04,-1.01e+04,-8.76e+03,9.17e+02,-1.94e+03,2.83e+04
4008,-2.35e+04,1.93e+03,2.21e+02,6.44e+03,-1.80e+03,6.04e+03,2.91e+04
4009,2.22e+04,-1.90e+03,2.64e+02,5.61e+03,1.75e+03,-5.51e+03,2.70e+04
4010,-3.07e+03,9.88e+02,-3.05e+03,7.50e+02,-6.30e+03,1.99e+02,1.17e+04
4011,-2.93e+04,-5.54e+02,-2.27e+03,-1.58e+04,-8.94e+02,6.04e+03,4.05e+04
4012,2.81e+04,6.38e+02,2.80e+03,-1.58e+04,1.87e+03,-5.51e+03,3.94e+04
4013,3.16e+04,-1.05e+03,4.93e+02,-1.03e+03,1.25e+03,8.07e+03,3.49e+04
4014,-3.02e+04,1.85e+03,-1.94e+02,-1.97e+03,-1.10e+03,-6.78e+03,3.34e+04
4015,1.85e+03,-1.35e+02,2.81e+03,-8.89e+03,8.39e+03,3.41e+02,2.13e+04
4016,3.16e+04,-1.03e+03,5.18e+02,-2.09e+04,1.40e+02,8.07e+03,5.03e+04
4017,-3.10e+04,1.52e+03,-5.26e+02,-2.10e+04,-7.97e+02,-6.78e+03,4.96e+04
4018,-3.30e+04,4.77e+02,-7.24e+02,-5.16e+03,-4.64e+02,8.28e+03,3.70e+04
4019,3.25e+04,-6.77e+02,4.39e+02,-5.67e+03,2.57e+02,-6.83e+03,3.61e+04
4020,-4.23e+02,3.48e+02,-8.92e+02,-1.35e+04,-8.76e+03,6.83e+02,2.79e+04
4021,-3.11e+04,1.30e+03,1.01e+02,-2.18e+04,4.51e+01,8.28e+03,5.14e+04
4022,3.09e+04,-1.36e+03,-2.43e+02,-2.18e+04,5.36e+01,-6.83e+03,5.07e+04
4023,3.12e+04,-1.19e+02,4.85e+02,-6.41e+03,5.35e+01,7.74e+03,3.56e+04
4024,-3.13e+04,2.34e+02,-4.00e+02,-6.39e+03,8.38e+01,-6.55e+03,3.50e+04
4025,-2.46e+01,-6.52e+01,-1.35e+02,-1.42e+04,8.22e+03,6.84e+02,2.85e+04
4026,2.91e+04,-1.01e+03,-4.03e+02,-2.16e+04,-1.23e+02,7.74e+03,4.97e+04
4027,-2.92e+04,1.15e+03,5.14e+02,-2.13e+04,1.38e+02,-6.55e+03,4.88e+04
4028,-2.91e+04,1.33e+02,-3.38e+02,-7.03e+03,1.12e+02,7.09e+03,3.37e+04
4029,2.92e+04,-1.62e+02,2.95e+02,-6.67e+03,-1.04e+02,-6.26e+03,3.32e+04
4030,-9.43e+01,-1.35e+02,4.13e+02,-1.42e+04,-7.56e+03,5.38e+02,2.78e+04
4031,-2.70e+04,1.02e+03,5.52e+02,-2.11e+04,1.54e+02,7.09e+03,4.76e+04
4032,2.70e+04,-1.09e+03,-6.30e+02,-2.06e+04,-1.04e+02,-6.26e+03,4.66e+04
4033,2.70e+04,-7.07e+01,3.26e+02,-7.61e+03,-1.22e+02,6.45e+03,3.19e+04
4034,-2.70e+04,8.22e+01,-2.92e+02,-7.02e+03,1.17e+02,-5.89e+03,3.13e+04
4035,3.16e+02,3.95e+02,-4.01e+02,-1.41e+04,7.00e+03,3.67e+02,2.73e+04
4036,2.49e+04,-9.74e+02,-5.77e+02,-2.06e+04,-1.32e+02,6.45e+03,4.54e+04
4037,-2.49e+04,1.01e+03,6.34e+02,-1.99e+04,9.44e+01,-5.89e+03,4.42e+04
4038,-2.48e+04,1.81e+01,-3.26e+02,-8.18e+03,1.20e+02,5.85e+03,3.02e+04
4039,2.49e+04,-4.70e+01,3.00e+02,-7.46e+03,-1.03e+02,-5.46e+03,2.95e+04
4040,-4.41e+02,-5.66e+02,3.46e+02,-1.41e+04,-6.43e+03,2.50e+02,2.68e+04
4041,-2.27e+04,9.24e+02,5.81e+02,-2.01e+04,1.20e+02,5.85e+03,4.32e+04
4042,2.27e+04,-9.64e+02,-6.17e+02,-1.93e+04,-8.04e+01,-5.46e+03,4.20e+04
4043,2.27e+04,2.15e+01,3.42e+02,-8.73e+03,-1.17e+02,5.29e+03,2.86e+04
4044,-2.27e+04,-6.44e+00,-3.11e+02,-7.95e+03,8.80e+01,-5.00e+03,2.78e+04
4045,5.30e+02,6.47e+02,-2.98e+02,-1.41e+04,5.86e+03,1.79e+02,2.64e+04
4046,2.06e+04,-8.84e+02,-5.64e+02,-1.96e+04,-1.15e+02,5.29e+03,4.11e+04
4047,-2.05e+04,9.09e+02,6.04e+02,-1.88e+04,6.80e+01,-5.00e+03,3.98e+04
4048,-2.05e+04,-4.46e+01,-3.57e+02,-9.28e+03,1.11e+02,4.74e+03,2.72e+04
4049,2.05e+04,6.92e+01,3.27e+02,-8.47e+03,-9.58e+01,-4.51e+03,2.63e+04
4050,-5.42e+02,-6.85e+02,2.78e+02,-1.41e+04,-5.31e+03,1.36e+02,2.60e+04
4051,-1.84e+04,8.62e+02,5.49e+02,-1.91e+04,1.18e+02,4.74e+03,3.90e+04
4052,1.84e+04,-8.44e+02,-5.86e+02,-1.82e+04,-7.40e+01,-4.51e+03,3.77e+04
4053,1.84e+04,1.96e+02,3.54e+02,-9.82e+03,-9.18e+01,4.22e+03,2.59e+04
4054,-1.83e+04,-1.52e+01,-3.51e+02,-9.01e+03,7.70e+01,-4.01e+03,2.49e+04
4055,5.89e+02,7.78e+02,-2.60e+02,-1.41e+04,4.75e+03,1.24e+02,2.57e+04
4056,1.62e+04,-7.28e+02,-5.71e+02,-1.85e+04,-8.18e+01,4.22e+03,3.69e+04
4057,-1.62e+04,8.91e+02,5.55e+02,-1.77e+04,6.76e+01,-4.01e+03,3.57e+04
4058,-1.62e+04,8.60e+01,-4.00e+02,-1.04e+04,1.56e+02,3.69e+03,2.50e+04
4059,1.62e+04,3.61e+02,3.32e+02,-9.53e+03,-8.40e+01,-3.52e+03,2.37e+04
4060,-5.86e+02,-5.61e+02,2.47e+02,-1.41e+04,-4.17e+03,7.69e+01,2.54e+04
4061,-1.42e+04,9.47e+02,4.61e+02,-1.80e+04,1.71e+02,3.69e+03,3.52e+04
4062,1.40e+04,-5.80e+02,-6.08e+02,-1.71e+04,-5.88e+01,-3.52e+03,3.35e+04
4063,1.38e+04,7.25e+02,3.46e+02,-1.09e+04,1.53e+01,3.18e+03,2.38e+04
4064,-1.41e+04,3.23e+02,-4.01e+02,-1.01e+04,1.03e+02,-2.95e+03,2.30e+04
4065,5.16e+02,1.17e+03,-2.53e+02,-1.40e+04,3.68e+03,1.55e+02,2.52e+04
4066,1.14e+04,-3.22e+02,-7.02e+02,-1.74e+04,2.03e+01,3.18e+03,3.28e+04
4067,-1.22e+04,1.16e+03,4.36e+02,-1.67e+04,1.02e+02,-2.95e+03,3.21e+04
4068,-1.24e+04,7.62e+02,-4.13e+02,-1.15e+04,3.01e+02,2.67e+03,2.41e+04
4069,1.15e+04,1.16e+03,3.18e+02,-1.06e+04,2.64e-01,-2.53e+03,2.18e+04
4070,-9.56e+02,2.21e+01,1.92e+02,-1.41e+04,-2.95e+03,6.17e+00,2.50e+04
4071,-1.08e+04,1.43e+03,2.56e+02,-1.71e+04,2.74e+02,2.67e+03,3.23e+04
4072,8.86e+03,3.40e+01,-8.10e+02,-1.60e+04,9.31e+00,-2.53e+03,2.95e+04
4073,8.25e+03,1.70e+03,3.81e+02,-1.22e+04,2.13e+02,2.20e+03,2.27e+04
4074,-1.04e+04,1.14e+03,-3.82e+02,-1.13e+04,2.70e+02,-1.74e+03,2.25e+04
4075,-2.10e+02,2.17e+03,-2.52e+02,-1.41e+04,2.66e+03,2.93e+02,2.50e+04
4076,4.80e+03,2.22e+02,-1.10e+03,-1.67e+04,7.87e+01,2.20e+03,2.97e+04
4077,-8.95e+03,1.75e+03,2.24e+02,-1.58e+04,2.33e+02,-1.74e+03,2.92e+04
4078,-9.30e+03,7.81e+02,-2.89e+02,-1.31e+04,2.46e+02,1.65e+03,2.48e+04
4079,5.22e+03,1.41e+03,2.72e+02,-1.22e+04,2.99e+02,-1.39e+03,2.18e+04
4080,-2.83e+03,3.47e+02,-2.46e+00,-1.45e+04,-1.59e+03,1.12e+02,2.55e+04
4081,-8.11e+03,1.29e+03,2.22e+02,-1.63e+04,4.28e+01,1.65e+03,2.97e+04
4082,1.16e+03,-3.26e+02,-1.47e+03,-1.61e+04,2.05e+02,-1.39e+03,2.80e+04
4083,6.88e+02,-1.78e+03,2.98e+02,-1.49e+04,-5.11e+02,9.65e+02,2.60e+04
4084,-7.22e+03,-2.70e+03,-6.99e+02,-1.31e+04,9.31e+02,-3.43e+02,2.35e+04
4085,-3.08e+03,2.12e+02,-9.14e+02,-1.50e+04,1.25e+03,-1.13e+02,2.63e+04
4086,-3.18e+03,-3.44e+03,-1.36e+03,-1.81e+04,-7.47e+02,9.65e+02,3.15e+04
4087,-5.01e+03,-1.75e+03,2.47e+02,-1.36e+04,8.55e+02,-3.43e+02,2.40e+04
4088,-6.96e+03,-1.42e+04,-2.56e+03,-1.44e+04,-7.23e+02,6.77e+02,2.70e+04
4089,1.69e+02,-1.03e+04,-5.75e+01,-1.46e+04,2.05e+03,7.63e+02,2.75e+04
4090,-6.17e+03,-9.61e+03,-1.57e+03,-1.57e+04,-1.47e+02,1.99e+03,2.82e+04
4091,-3.54e+03,-1.27e+04,-1.10e+03,-8.67e+03,-8.34e+02,6.77e+02,1.85e+04
4092,1.26e+01,-1.03e+04,-1.24e+02,-1.24e+04,2.30e+03,7.63e+02,2.42e+04
4093,3.17e+03,-3.07e+04,3.67e+02,-1.24e+04,-3.34e+03,1.11e+03,3.94e+04
4094,-4.96e+03,-2.61e+04,-4.33e+03,-7.63e+03,9.84e+02,-7.27e+02,2.53e+04
4095,-1.31e+03,-1.99e+04,-2.32e+03,-9.86e+03,1.05e+03,-2.10e+03,2.52e+04
4096,3.49e+04,1.22e+04,1.06e+04,-6.38e+03,4.66e+03,2.10e+03,2.75e+04
4097,1.06e+05,2.95e+04,3.14e+04,-1.80e+04,-4.44e+03,-4.11e+03,8.27e+04
4098,7.93e+04,9.25e+02,4.42e+03,3.16e+03,3.54e+03,8.78e+03,7.86e+04
4099,2.69e+04,9.07e+03,4.97e+03,1.95e+03,1.75e+03,-5.65e+03,2.29e+04
4100,5.23e+04,9.89e+03,1.25e+04,-3.04e+03,1.02e+04,-2.02e+03,4.53e+04
4101,9.60e+04,8.10e+03,1.16e+04,-1.56e+04,1.52e+03,8.78e+03,9.17e+04
4102,3.28e+04,1.16e+04,7.50e+03,-1.95e+04,1.87e+03,-5.65e+03,4.24e+04
4103,3.38e+04,4.10e+03,2.70e+03,-6.71e+02,1.25e+03,7.79e+03,3.34e+04
4104,1.00e+05,1.13e+03,5.79e+03,-4.78e+03,2.62e+03,-7.57e+03,9.84e+04
4105,6.86e+04,1.10e+04,7.29e+03,-1.05e+04,-7.35e+03,2.84e+03,6.37e+04
4106,3.38e+04,4.13e+03,2.73e+03,-2.06e+04,1.40e+02,7.79e+03,4.88e+04
4107,9.89e+04,4.71e+02,5.12e+03,-1.95e+04,1.58e+03,-7.57e+03,1.03e+05
4108,1.02e+05,1.82e+03,4.04e+03,-4.26e+03,1.53e+03,7.99e+03,9.99e+04
4109,3.35e+04,1.59e+03,1.41e+03,-3.94e+03,2.57e+02,-6.94e+03,3.48e+04
4110,6.87e+04,2.84e+03,4.78e+03,-1.25e+04,9.92e+03,-5.20e+01,7.06e+04
4111,9.51e+04,-9.36e+02,1.29e+03,-1.98e+04,1.30e+02,7.99e+03,1.02e+05
4112,3.19e+04,9.08e+02,7.29e+02,-2.01e+04,5.36e+01,-6.94e+03,4.81e+04
4113,3.18e+04,1.34e+03,1.11e+03,-4.34e+03,5.35e+01,7.65e+03,3.42e+04
4114,9.48e+04,7.92e+02,2.16e+03,-4.35e+03,-8.88e+01,-6.75e+03,9.44e+04
4115,6.35e+04,6.97e+02,1.40e+03,-1.22e+04,-8.27e+03,2.40e+02,6.75e+04
4116,2.98e+04,4.48e+02,2.20e+02,-1.95e+04,-1.23e+02,7.65e+03,4.67e+04
4117,8.84e+04,-1.98e+03,-6.08e+02,-1.90e+04,-4.37e+02,-6.75e+03,9.62e+04
4118,8.81e+04,9.91e+02,1.88e+03,-4.84e+03,-3.86e+02,6.91e+03,8.79e+04
4119,2.98e+04,1.19e+03,8.75e+02,-4.56e+03,-1.04e+02,-6.33e+03,3.18e+04
4120,5.91e+04,4.20e+02,1.55e+02,-1.20e+04,7.36e+03,8.48e+02,6.37e+04
4121,8.17e+04,-1.75e+03,-8.64e+02,-1.89e+04,-4.03e+02,6.91e+03,9.00e+04
4122,2.76e+04,2.68e+02,-4.90e+01,-1.85e+04,-1.04e+02,-6.33e+03,4.36e+04
4123,2.75e+04,1.04e+03,8.02e+02,-5.42e+03,-1.22e+02,6.37e+03,3.02e+04
4124,8.17e+04,8.80e+02,1.58e+03,-4.87e+03,-3.19e+02,-5.98e+03,8.16e+04
4125,5.44e+04,-2.46e+02,7.13e+02,-1.20e+04,-7.27e+03,-2.16e+02,5.93e+04
4126,2.53e+04,1.36e+02,-1.01e+02,-1.84e+04,-1.32e+02,6.37e+03,4.22e+04
4127,7.52e+04,-1.91e+03,-1.20e+03,-1.77e+04,-4.10e+02,-5.98e+03,8.33e+04
4128,7.50e+04,9.86e+02,1.61e+03,-5.92e+03,-4.93e+02,5.75e+03,7.51e+04
4129,2.53e+04,1.05e+03,7.72e+02,-5.34e+03,-1.03e+02,-5.51e+03,2.78e+04
4130,5.05e+04,6.16e+02,-1.57e+02,-1.19e+04,6.17e+03,6.75e+02,5.54e+04
4131,6.86e+04,-1.75e+03,-1.13e+03,-1.78e+04,-3.81e+02,5.75e+03,7.72e+04
4132,2.32e+04,1.37e+02,-1.45e+02,-1.72e+04,-8.04e+01,-5.51e+03,3.90e+04
4133,2.31e+04,9.27e+02,7.30e+02,-6.52e+03,-1.17e+02,5.22e+03,2.65e+04
4134,6.85e+04,9.54e+02,1.50e+03,-5.80e+03,-2.95e+02,-5.04e+03,6.86e+04
4135,4.55e+04,-5.13e+02,5.39e+02,-1.19e+04,-6.11e+03,-3.81e+02,5.10e+04
4136,2.10e+04,2.21e+01,-1.75e+02,-1.74e+04,-1.15e+02,5.22e+03,3.78e+04
4137,6.21e+04,-1.80e+03,-1.25e+03,-1.65e+04,-3.54e+02,-5.04e+03,7.03e+04
4138,6.20e+04,1.07e+03,1.55e+03,-7.00e+03,-4.62e+02,4.67e+03,6.24e+04
4139,2.09e+04,9.52e+02,7.05e+02,-6.35e+03,-9.58e+01,-4.55e+03,2.42e+04
4140,4.19e+04,7.15e+02,-1.57e+02,-1.18e+04,5.07e+03,5.88e+02,4.72e+04
4141,5.56e+04,-1.67e+03,-1.19e+03,-1.67e+04,-3.59e+02,4.67e+03,6.45e+04
4142,1.88e+04,3.91e+01,-2.07e+02,-1.61e+04,-7.40e+01,-4.55e+03,3.46e+04
4143,1.87e+04,8.90e+02,6.51e+02,-7.60e+03,-9.18e+01,4.17e+03,2.34e+04
4144,5.54e+04,1.10e+03,1.46e+03,-6.82e+03,-2.84e+02,-4.05e+03,5.59e+04
4145,3.67e+04,-5.52e+02,4.58e+02,-1.18e+04,-4.97e+03,-4.34e+02,4.30e+04
4146,1.65e+04,-3.46e+01,-2.73e+02,-1.63e+04,-8.18e+01,4.17e+03,3.35e+04
4147,4.91e+04,-1.64e+03,-1.28e+03,-1.54e+04,-3.23e+02,-4.05e+03,5.75e+04
4148,4.90e+04,1.30e+03,1.47e+03,-7.99e+03,-3.97e+02,3.64e+03,4.99e+04
4149,1.64e+04,9.90e+02,6.02e+02,-7.36e+03,-8.40e+01,-3.54e+03,2.11e+04
4150,3.32e+04,8.37e+02,-1.93e+02,-1.18e+04,4.00e+03,5.76e+02,3.93e+04
4151,4.26e+04,-1.43e+03,-1.26e+03,-1.55e+04,-2.92e+02,3.64e+03,5.18e+04
4152,1.42e+04,4.99e+01,-3.38e+02,-1.49e+04,-5.88e+01,-3.54e+03,3.02e+04
4153,1.40e+04,1.14e+03,5.25e+02,-8.49e+03,1.53e+01,3.20e+03,2.05e+04
4154,4.26e+04,1.49e+03,1.38e+03,-7.65e+03,-2.22e+02,-3.07e+03,4.35e+04
4155,2.79e+04,-3.38e+02,3.42e+02,-1.17e+04,-3.83e+03,-4.63e+02,3.51e+04
4156,1.15e+04,9.49e+01,-5.23e+02,-1.49e+04,2.03e+01,3.20e+03,2.89e+04
4157,3.63e+04,-1.18e+03,-1.29e+03,-1.39e+04,-2.40e+02,-3.07e+03,4.50e+04
4158,3.60e+04,1.97e+03,1.44e+03,-8.61e+03,-2.03e+02,2.74e+03,3.77e+04
4159,1.16e+04,1.51e+03,4.68e+02,-7.97e+03,2.64e-01,-2.50e+03,1.80e+04
4160,2.44e+04,1.39e+03,-2.13e+02,-1.14e+04,3.09e+03,6.65e+02,3.14e+04
4161,2.96e+04,-7.63e+02,-1.29e+03,-1.38e+04,-1.67e+02,2.74e+03,3.91e+04
4162,9.01e+03,3.84e+02,-6.59e+02,-1.33e+04,9.31e+00,-2.50e+03,2.52e+04
4163,8.40e+03,2.04e+03,5.28e+02,-8.74e+03,2.13e+02,2.44e+03,1.73e+04
4164,2.99e+04,2.31e+03,1.45e+03,-7.91e+03,-3.35e+01,-2.20e+03,3.14e+04
4165,1.88e+04,4.02e+02,2.56e+02,-1.10e+04,-2.75e+03,-4.83e+02,2.70e+04
4166,4.95e+03,5.65e+02,-9.50e+02,-1.32e+04,7.87e+01,2.44e+03,2.39e+04
4167,2.35e+04,-4.16e+02,-1.28e+03,-1.19e+04,-1.28e+02,-2.20e+03,3.22e+04
4168,2.25e+04,2.46e+03,1.93e+03,-8.85e+03,-1.18e+02,2.26e+03,2.58e+04
4169,5.64e+03,2.40e+03,6.96e+02,-7.71e+03,2.99e+02,-1.29e+03,1.42e+04
4170,1.49e+04,2.65e+03,1.73e+01,-1.03e+04,2.41e+03,9.64e+02,2.30e+04
4171,1.51e+04,-7.21e+02,-1.25e+03,-1.27e+04,-5.21e+02,2.26e+03,2.76e+04
4172,1.58e+03,6.64e+02,-1.04e+03,-1.15e+04,2.05e+02,-1.29e+03,2.02e+04
4173,1.58e+03,3.00e+02,1.19e+03,-8.98e+03,-5.11e+02,1.53e+03,1.58e+04
4174,1.43e+04,-5.48e+01,1.76e+03,-9.14e+03,-2.06e+01,-1.36e+03,2.10e+04
4175,7.73e+03,-6.14e+01,6.57e+02,-1.06e+04,-2.01e+03,-1.32e+02,2.01e+04
4176,-2.29e+03,-1.36e+03,-4.70e+02,-1.22e+04,-7.47e+02,1.53e+03,2.14e+04
4177,3.95e+03,-4.50e+03,-2.69e+03,-1.39e+04,-2.87e+02,-1.36e+03,2.55e+04
4178,6.34e+03,-1.18e+04,1.68e+03,-1.35e+04,-3.82e+03,1.73e+03,2.94e+04
4179,-4.35e+02,-1.17e+04,-6.61e+02,-1.03e+04,2.05e+03,7.64e+02,2.14e+04
4180,-1.27e+02,-5.47e+03,-1.97e+03,-1.25e+04,3.28e+02,-4.82e+02,2.21e+04
4181,-8.57e+02,-1.49e+04,-1.41e+03,-2.11e+04,-2.36e+03,1.73e+03,3.93e+04
4182,-5.91e+02,-1.17e+04,-7.28e+02,-8.15e+03,2.30e+03,7.64e+02,1.84e+04
4183,-7.64e+03,-5.59e+04,-1.04e+04,-9.81e+03,-3.34e+03,3.02e+03,5.05e+04
4184,4.38e+03,-4.92e+04,-7.27e+03,-1.60e+04,5.23e+03,2.91e+03,5.70e+04
4185,-5.67e+03,-3.71e+04,-7.79e+03,-1.50e+04,-2.63e+02,8.33e+03,4.26e+04
4186,2.49e+05,7.84e+04,8.59e+04,-5.22e+04,2.47e+04,1.62e+03,1.94e+05
4187,1.07e+05,3.15e+04,3.23e+04,-2.29e+04,-4.44e+03,-4.00e+03,8.57e+04
4188,8.01e+04,2.81e+03,5.23e+03,-6.37e+03,3.54e+03,6.31e+03,7.79e+04
4189,1.89e+05,8.33e+03,3.22e+04,-8.45e+03,1.05e+04,-1.02e+04,1.73e+05
4190,1.28e+05,2.08e+04,2.52e+04,-1.90e+04,-1.01e+04,5.54e+03,1.12e+05
4191,9.68e+04,9.99e+03,1.24e+04,-2.52e+04,1.52e+03,6.31e+03,9.68e+04
4192,1.77e+05,3.12e+03,2.70e+04,-1.67e+04,1.02e+04,-1.02e+04,1.68e+05
4193,1.93e+05,7.48e+03,1.70e+04,-2.27e+03,9.85e+03,8.40e+03,1.83e+05
4194,1.00e+05,5.77e+02,5.55e+03,-1.30e+03,2.62e+03,-8.17e+03,9.84e+04
4195,1.53e+05,1.03e+04,2.37e+04,-1.33e+04,1.90e+04,-3.51e+03,1.42e+05
4196,1.74e+05,-7.79e+02,8.77e+03,-1.46e+04,2.87e+03,8.40e+03,1.73e+05
4197,9.87e+04,-8.64e+01,4.88e+03,-1.60e+04,1.58e+03,-8.17e+03,1.01e+05
4198,1.02e+05,2.95e+03,4.53e+03,1.80e+03,1.53e+03,7.53e+03,9.92e+04
4199,1.70e+05,1.93e+03,7.84e+03,2.07e+03,8.96e+02,-7.53e+03,1.66e+05
4200,1.36e+05,1.63e+03,6.26e+03,-6.20e+03,-8.05e+03,-2.94e+02,1.34e+05
4201,9.56e+04,1.91e+02,1.77e+03,-1.37e+04,1.30e+02,7.53e+03,9.84e+04
4202,1.59e+05,-2.78e+03,3.14e+03,-1.29e+04,-2.36e+02,-7.53e+03,1.61e+05
4203,1.59e+05,2.09e+03,4.85e+03,2.18e+03,4.92e+02,7.07e+03,1.56e+05
4204,9.53e+04,1.88e+03,2.63e+03,1.91e+03,-8.88e+01,-6.88e+03,9.39e+04
4205,1.27e+05,6.57e+02,3.24e+03,-5.81e+03,8.57e+03,7.00e+02,1.27e+05
4206,1.48e+05,-2.47e+03,2.92e+02,-1.26e+04,-9.50e+02,7.07e+03,1.51e+05
4207,8.88e+04,-8.87e+02,-1.40e+02,-1.27e+04,-4.37e+02,-6.88e+03,9.28e+04
4208,8.86e+04,2.20e+03,2.40e+03,1.73e+03,-3.86e+02,6.51e+03,8.71e+04
4209,1.48e+05,1.80e+03,4.27e+03,2.04e+03,-9.10e+02,-6.70e+03,1.45e+05
4210,1.19e+05,1.95e+02,2.33e+03,-5.36e+03,-8.48e+03,-9.72e+02,1.19e+05
4211,8.22e+04,-5.36e+02,-3.44e+02,-1.23e+04,-4.03e+02,6.51e+03,8.61e+04
4212,1.37e+05,-2.68e+03,-2.14e+02,-1.18e+04,-9.39e+02,-6.70e+03,1.41e+05
4213,1.36e+05,1.80e+03,3.26e+03,1.28e+03,-6.10e+02,6.06e+03,1.34e+05
4214,8.21e+04,1.89e+03,2.02e+03,1.48e+03,-3.19e+02,-6.07e+03,8.09e+04
4215,1.09e+05,5.52e+02,8.61e+02,-5.34e+03,6.60e+03,8.74e+02,1.10e+05
4216,1.26e+05,-2.58e+03,-1.12e+03,-1.15e+04,-1.17e+03,6.06e+03,1.30e+05
4217,7.56e+04,-8.95e+02,-7.69e+02,-1.13e+04,-4.10e+02,-6.07e+03,7.96e+04
4218,7.55e+04,2.03e+03,2.05e+03,7.31e+02,-4.93e+02,5.42e+03,7.40e+04
4219,1.25e+05,1.84e+03,3.53e+03,1.12e+03,-1.01e+03,-5.73e+03,1.23e+05
4220,1.01e+05,-1.09e+02,1.64e+03,-5.23e+03,-7.34e+03,-1.12e+03,1.01e+05
4221,6.91e+04,-7.10e+02,-6.83e+02,-1.12e+04,-3.81e+02,5.42e+03,7.30e+04
4222,1.15e+05,-2.54e+03,-8.45e+02,-1.07e+04,-9.20e+02,-5.73e+03,1.19e+05
4223,1.14e+05,1.83e+03,2.93e+03,2.04e+02,-7.39e+02,5.03e+03,1.12e+05
4224,6.88e+04,1.80e+03,1.86e+03,5.31e+02,-2.95e+02,-5.11e+03,6.76e+04
4225,9.17e+04,6.08e+02,4.43e+02,-5.29e+03,5.41e+03,8.60e+02,9.21e+04
4226,1.04e+05,-2.54e+03,-1.44e+03,-1.05e+04,-1.13e+03,5.03e+03,1.08e+05
4227,6.24e+04,-9.57e+02,-8.91e+02,-1.02e+04,-3.54e+02,-5.11e+03,6.64e+04
4228,6.23e+04,1.91e+03,1.91e+03,-3.57e+02,-4.62e+02,4.41e+03,6.09e+04
4229,1.03e+05,1.89e+03,3.21e+03,8.76e+01,-9.94e+02,-4.69e+03,1.01e+05
4230,8.32e+04,-2.17e+02,1.39e+03,-5.21e+03,-6.14e+03,-1.12e+03,8.38e+04
4231,5.59e+04,-8.30e+02,-8.31e+02,-1.01e+04,-3.59e+02,4.41e+03,5.99e+04
4232,9.31e+04,-2.45e+03,-1.14e+03,-9.56e+03,-9.07e+02,-4.69e+03,9.67e+04
4233,9.22e+04,1.90e+03,2.71e+03,-8.57e+02,-7.64e+02,4.02e+03,9.02e+04
4234,5.57e+04,1.73e+03,1.73e+03,-5.27e+02,-2.84e+02,-4.10e+03,5.45e+04
4235,7.42e+04,5.98e+02,2.13e+02,-5.27e+03,4.26e+03,8.70e+02,7.47e+04
4236,8.21e+04,-2.45e+03,-1.64e+03,-9.36e+03,-1.04e+03,4.02e+03,8.60e+04
4237,4.93e+04,-1.00e+03,-1.01e+03,-9.09e+03,-3.23e+02,-4.10e+03,5.32e+04
4238,4.92e+04,1.84e+03,1.70e+03,-1.41e+03,-3.97e+02,3.45e+03,4.79e+04
4239,8.15e+04,1.96e+03,2.84e+03,-9.24e+02,-9.37e+02,-3.67e+03,7.94e+04
4240,6.57e+04,-2.52e+02,1.12e+03,-5.17e+03,-4.94e+03,-1.09e+03,6.65e+04
4241,4.28e+04,-8.94e+02,-1.03e+03,-8.88e+03,-2.92e+02,3.45e+03,4.68e+04
4242,7.16e+04,-2.29e+03,-1.41e+03,-8.36e+03,-8.49e+02,-3.67e+03,7.51e+04
4243,7.06e+04,1.98e+03,2.38e+03,-1.75e+03,-6.99e+02,3.06e+03,6.88e+04
4244,4.27e+04,1.74e+03,1.49e+03,-1.45e+03,-2.22e+02,-3.09e+03,4.15e+04
4245,5.68e+04,6.23e+02,-5.71e+01,-5.10e+03,3.21e+03,8.88e+02,5.75e+04
4246,6.10e+04,-2.18e+03,-1.78e+03,-7.99e+03,-8.55e+02,3.06e+03,6.47e+04
4247,3.64e+04,-9.28e+02,-1.19e+03,-7.72e+03,-2.40e+02,-3.09e+03,4.02e+04
4248,3.60e+04,1.94e+03,1.43e+03,-2.05e+03,-2.03e+02,2.67e+03,3.48e+04
4249,6.07e+04,1.95e+03,2.40e+03,-1.55e+03,-6.99e+02,-2.76e+03,5.88e+04
4250,4.87e+04,-1.74e+02,7.61e+02,-4.84e+03,-3.74e+03,-1.00e+03,4.96e+04
4251,2.96e+04,-7.98e+02,-1.31e+03,-7.22e+03,-1.67e+02,2.67e+03,3.34e+04
4252,5.21e+04,-1.74e+03,-1.28e+03,-6.66e+03,-6.70e+02,-2.76e+03,5.50e+04
4253,5.11e+04,2.02e+03,2.47e+03,-1.81e+03,-6.19e+02,2.40e+03,4.91e+04
4254,2.97e+04,1.94e+03,1.29e+03,-1.41e+03,-3.35e+01,-2.19e+03,2.85e+04
4255,4.05e+04,9.53e+02,-1.09e+02,-4.21e+03,2.56e+03,9.45e+02,4.11e+04
4256,4.37e+04,-1.15e+03,-7.01e+02,-5.91e+03,-1.16e+03,2.40e+03,4.60e+04
4257,2.34e+04,-7.88e+02,-1.44e+03,-5.42e+03,-1.28e+02,-2.19e+03,2.65e+04
4258,2.24e+04,2.26e+03,1.84e+03,-8.63e+02,-1.18e+02,2.28e+03,2.08e+04
4259,4.38e+04,1.53e+03,3.87e+03,-7.71e+02,-4.63e+02,-2.30e+03,4.14e+04
4260,3.37e+04,2.36e+02,1.62e+03,-3.21e+03,-3.39e+03,-9.14e+02,3.38e+04
4261,1.50e+04,-9.15e+02,-1.33e+03,-4.72e+03,-5.21e+02,2.28e+03,1.85e+04
4262,3.91e+04,-4.98e+02,1.84e+03,-3.96e+03,-1.02e+03,-2.30e+03,3.93e+04
4263,3.89e+04,1.28e+03,7.09e+03,5.45e+01,-2.05e+03,2.66e+03,3.55e+04
4264,1.51e+04,1.69e+03,2.50e+03,1.70e+03,-2.06e+01,-1.71e+03,1.36e+04
4265,2.69e+04,1.98e+03,1.72e+03,-1.58e+03,2.70e+03,1.15e+03,2.57e+04
4266,3.48e+04,-4.73e+02,5.34e+03,-5.67e+03,-4.99e+03,2.66e+03,3.56e+04
4267,4.70e+03,-2.76e+03,-1.94e+03,-3.11e+03,-2.87e+02,-1.71e+03,9.39e+03
4268,9.73e+03,-3.89e+03,5.07e+03,1.63e+03,-3.82e+03,3.40e+01,1.40e+04
4269,3.63e+04,-3.69e+03,1.61e+04,5.29e+02,-8.22e+02,-3.08e+03,3.51e+04
4270,2.11e+04,-1.72e+03,8.66e+03,-1.07e+03,-7.25e+03,-1.05e+03,2.36e+04
4271,2.53e+03,-6.98e+03,1.98e+03,-6.00e+03,-2.36e+03,3.40e+01,1.45e+04
4272,2.00e+04,-1.07e+04,9.11e+03,-1.95e+04,-5.67e+02,-3.08e+03,4.36e+04
4273,1.69e+04,-9.68e+04,-3.34e+03,-2.66e+04,-1.61e+04,1.17e+04,1.20e+05
4274,-2.88e+03,-6.61e+04,-1.45e+04,-3.41e+03,5.23e+03,1.86e+03,5.94e+04
4275,3.22e+03,-3.29e+04,-3.64e+03,-1.19e+04,2.20e+03,-8.61e+03,4.20e+04
4276,-2.49e+05,-7.99e+04,-8.59e+04,-5.37e+04,-1.60e+04,8.02e+02,1.92e+05
4277,-1.07e+05,-3.11e+04,-3.14e+04,-2.29e+04,9.58e+03,-4.12e+03,8.72e+04
4278,-7.82e+04,-2.95e+03,-7.30e+03,-6.48e+03,1.95e+03,7.76e+03,7.53e+04
4279,-1.89e+05,-8.32e+03,-3.21e+04,-8.45e+03,-2.15e+03,-9.78e+03,1.72e+05
4280,-1.30e+05,-1.90e+04,-2.72e+04,-1.96e+04,1.70e+04,5.55e+03,1.16e+05
4281,-9.49e+04,-1.01e+04,-1.45e+04,-2.40e+04,2.27e+03,7.76e+03,9.36e+04
4282,-1.77e+05,-3.11e+03,-2.69e+04,-1.67e+04,-2.52e+03,-9.78e+03,1.67e+05
4283,-1.87e+05,-5.74e+03,-1.97e+04,-2.86e+03,-2.57e+03,7.90e+03,1.76e+05
4284,-1.01e+05,-1.30e+03,-7.22e+03,-1.30e+03,7.37e+02,-7.51e+03,9.77e+04
4285,-1.48e+05,-9.55e+03,-2.12e+04,-1.23e+04,-1.32e+04,-2.74e+03,1.36e+05
4286,-1.71e+05,1.14e+03,-1.28e+04,-1.42e+04,-7.91e+02,7.90e+03,1.68e+05
4287,-9.94e+04,-6.33e+02,-6.56e+03,-1.60e+04,-3.10e+02,-7.51e+03,1.01e+05
4288,-1.01e+05,-2.18e+03,-4.72e+03,9.90e+02,-7.73e+02,7.27e+03,9.84e+04
4289,-1.70e+05,-2.43e+03,-9.01e+03,2.07e+03,1.36e+03,-7.53e+03,1.65e+05
4290,-1.37e+05,-1.55e+03,-9.24e+03,-6.87e+03,9.73e+03,1.09e+02,1.33e+05
4291,-9.54e+04,2.37e+02,-2.31e+03,-1.39e+04,3.50e+01,7.27e+03,9.82e+04
4292,-1.59e+05,2.28e+03,-4.30e+03,-1.29e+04,2.31e+02,-7.53e+03,1.61e+05
4293,-1.59e+05,-1.92e+03,-5.58e+03,2.24e+03,-4.81e+02,7.00e+03,1.56e+05
4294,-9.55e+04,-2.10e+03,-3.12e+03,1.91e+03,3.10e+02,-7.05e+03,9.38e+04
4295,-1.28e+05,-7.11e+02,-4.14e+03,-5.73e+03,-8.56e+03,5.22e+02,1.27e+05
4296,-1.48e+05,2.70e+03,-9.65e+02,-1.23e+04,-1.84e+02,7.00e+03,1.51e+05
4297,-8.90e+04,6.75e+02,-3.53e+02,-1.27e+04,-3.75e+01,-7.05e+03,9.27e+04
4298,-8.89e+04,-2.05e+03,-2.48e+03,1.81e+03,-8.76e+01,6.57e+03,8.75e+04
4299,-1.48e+05,-1.76e+03,-4.17e+03,2.04e+03,1.26e+02,-6.57e+03,1.45e+05
4300,-1.19e+05,-1.43e+02,-1.99e+03,-5.32e+03,7.77e+03,-9.04e+02,1.19e+05
4301,-8.24e+04,7.63e+02,3.30e+02,-1.20e+04,5.55e+01,6.57e+03,8.62e+04
4302,-1.37e+05,2.72e+03,3.17e+02,-1.18e+04,9.77e+01,-6.57e+03,1.41e+05
4303,-1.36e+05,-1.73e+03,-3.57e+03,1.61e+03,-2.42e+01,6.08e+03,1.34e+05
4304,-8.22e+04,-1.97e+03,-2.20e+03,1.49e+03,1.70e+01,-6.10e+03,8.09e+04
4305,-1.10e+05,-7.56e+01,-1.27e+03,-5.16e+03,-7.13e+03,9.66e+02,1.10e+05
4306,-1.26e+05,2.69e+03,8.41e+02,-1.12e+04,-8.07e+01,6.08e+03,1.30e+05
4307,-7.57e+04,8.11e+02,5.87e+02,-1.13e+04,-7.32e+01,-6.10e+03,7.96e+04
4308,-7.55e+04,-1.91e+03,-2.07e+03,1.04e+03,8.06e+00,5.59e+03,7.42e+04
4309,-1.25e+05,-1.73e+03,-3.29e+03,1.14e+03,-2.85e+01,-5.59e+03,1.23e+05
4310,-1.01e+05,-4.07e+01,-9.53e+02,-5.08e+03,6.52e+03,-9.97e+02,1.01e+05
4311,-6.91e+04,8.53e+02,6.94e+02,-1.07e+04,7.67e+01,5.59e+03,7.29e+04
4312,-1.15e+05,2.63e+03,1.07e+03,-1.06e+04,5.77e+01,-5.59e+03,1.19e+05
4313,-1.14e+05,-1.76e+03,-3.14e+03,6.31e+02,3.54e+01,5.08e+03,1.12e+05
4314,-6.89e+04,-1.85e+03,-1.99e+03,5.54e+02,-1.71e+01,-5.09e+03,6.76e+04
4315,-9.18e+04,-3.54e+01,-8.20e+02,-5.04e+03,-5.95e+03,9.97e+02,9.24e+04
4316,-1.04e+05,2.59e+03,1.20e+03,-1.01e+04,-4.71e+01,5.08e+03,1.08e+05
4317,-6.25e+04,8.99e+02,7.60e+02,-1.02e+04,-7.92e+01,-5.09e+03,6.63e+04
4318,-6.23e+04,-1.80e+03,-1.94e+03,4.02e+01,2.22e+01,4.58e+03,6.10e+04
4319,-1.03e+05,-1.79e+03,-3.04e+03,1.09e+02,-3.77e+01,-4.58e+03,1.01e+05
4320,-8.30e+04,-3.13e+01,-7.37e+02,-5.02e+03,5.38e+03,-1.00e+03,8.37e+04
4321,-5.59e+04,9.53e+02,8.11e+02,-9.65e+03,8.21e+01,4.58e+03,5.97e+04
4322,-9.32e+04,2.54e+03,1.29e+03,-9.57e+03,3.47e+01,-4.58e+03,9.69e+04
4323,-9.24e+04,-1.83e+03,-2.99e+03,-4.29e+02,3.68e+01,4.07e+03,9.03e+04
4324,-5.58e+04,-1.74e+03,-1.91e+03,-4.87e+02,-2.77e+01,-4.07e+03,5.44e+04
4325,-7.43e+04,-2.69e+01,-6.91e+02,-5.02e+03,-4.81e+03,1.00e+03,7.49e+04
4326,-8.22e+04,2.52e+03,1.35e+03,-9.05e+03,-1.79e+01,4.07e+03,8.59e+04
4327,-4.93e+04,1.02e+03,8.49e+02,-9.13e+03,-8.68e+01,-4.07e+03,5.31e+04
4328,-4.92e+04,-1.67e+03,-1.92e+03,-1.04e+03,3.83e+01,3.54e+03,4.78e+04
4329,-8.14e+04,-1.87e+03,-3.00e+03,-1.00e+03,-3.10e+01,-3.55e+03,7.92e+04
4330,-6.55e+04,-1.55e+01,-6.80e+02,-5.04e+03,4.25e+03,-1.01e+03,6.62e+04
4331,-4.27e+04,1.11e+03,8.66e+02,-8.65e+03,9.74e+01,3.54e+03,4.66e+04
4332,-7.11e+04,2.53e+03,1.40e+03,-8.58e+03,3.19e+00,-3.55e+03,7.49e+04
4333,-7.03e+04,-1.93e+03,-3.07e+03,-1.64e+03,2.50e+01,3.01e+03,6.81e+04
4334,-4.25e+04,-1.57e+03,-1.96e+03,-1.67e+03,-4.75e+01,-3.00e+03,4.12e+04
4335,-5.67e+04,1.11e+01,-7.05e+02,-5.12e+03,-3.67e+03,1.03e+03,5.74e+04
4336,-5.97e+04,2.61e+03,1.47e+03,-8.19e+03,9.08e+00,3.01e+03,6.36e+04
4337,-3.60e+04,1.25e+03,8.62e+02,-8.26e+03,-1.04e+02,-3.00e+03,4.00e+04
4338,-3.58e+04,-1.45e+03,-2.01e+03,-2.45e+03,5.71e+01,2.41e+03,3.46e+04
4339,-5.88e+04,-2.03e+03,-3.15e+03,-2.43e+03,1.73e+00,-2.42e+03,5.65e+04
4340,-4.76e+04,6.61e+01,-7.41e+02,-5.32e+03,3.05e+03,-1.06e+03,4.85e+04
4341,-2.91e+04,1.42e+03,8.57e+02,-7.99e+03,9.68e+01,2.41e+03,3.36e+04
4342,-4.76e+04,2.77e+03,1.65e+03,-7.88e+03,1.19e+01,-2.42e+03,5.18e+04
4343,-4.66e+04,-2.22e+03,-3.10e+03,-3.41e+03,-4.75e+01,1.78e+03,4.45e+04
4344,-2.90e+04,-1.36e+03,-2.00e+03,-3.46e+03,-3.44e+01,-1.76e+03,2.81e+04
4345,-3.82e+04,1.21e+02,-7.00e+02,-5.68e+03,-2.34e+03,1.10e+03,3.94e+04
4346,-3.46e+04,2.95e+03,2.07e+03,-7.55e+03,-9.59e+01,1.78e+03,3.94e+04
4347,-2.22e+04,1.57e+03,9.29e+02,-7.77e+03,-4.01e+01,-1.76e+03,2.72e+04
4348,-2.19e+04,-1.51e+03,-1.76e+03,-4.70e+03,-5.89e+01,1.09e+03,2.19e+04
4349,-3.35e+04,-2.56e+03,-2.64e+03,-4.52e+03,1.01e+02,-1.08e+03,3.20e+04
4350,-2.81e+04,9.99e+01,-3.97e+02,-6.14e+03,1.51e+03,-1.14e+03,3.01e+04
4351,-1.49e+04,1.47e+03,1.23e+03,-7.19e+03,-1.22e+02,1.09e+03,2.06e+04
4352,-2.10e+04,2.83e+03,2.75e+03,-6.81e+03,2.27e+02,-1.08e+03,2.66e+04
4353,-2.01e+04,-3.00e+03,-1.49e+03,-5.24e+03,-1.48e+02,4.77e+02,2.01e+04
4354,-1.45e+04,-2.25e+03,-1.08e+03,-5.70e+03,2.06e+02,-5.04e+02,1.62e+04
4355,-1.76e+04,-1.86e+02,3.62e+02,-6.24e+03,-6.58e+02,1.16e+03,2.08e+04
4356,-8.64e+03,1.90e+03,3.41e+03,-4.98e+03,-3.85e+02,4.77e+02,1.43e+04
4357,-7.58e+03,6.97e+02,1.87e+03,-5.36e+03,3.29e+02,-5.04e+02,1.29e+04
4358,-7.25e+03,-3.46e+03,1.88e+02,-5.40e+03,-2.36e+02,2.13e+02,1.14e+04
4359,-8.40e+03,-3.04e+03,3.13e+02,-4.45e+03,-6.11e+01,-1.98e+02,1.08e+04
4360,-7.47e+03,-7.38e+02,1.67e+03,-5.02e+03,2.86e+01,-9.69e+02,1.21e+04
4361,-1.78e+03,-1.11e+03,2.53e+03,-1.30e+03,-3.89e+02,2.13e+02,4.67e+03
4362,-1.92e+03,-2.67e+02,3.09e+03,-1.50e+03,2.53e+02,-1.98e+02,5.16e+03
4363,-1.31e+03,-1.40e+03,2.54e+03,-1.34e+03,-6.89e+00,-2.40e+00,4.53e+03
4364,-3.78e+02,-2.14e+03,2.94e+03,-1.60e+03,3.21e+02,-3.10e+02,5.31e+03
4365,-1.03e+03,-9.02e+02,3.03e+03,-1.44e+03,-1.05e+02,1.97e+02,4.72e+03
4366,-3.45e+04,-1.21e+04,-1.04e+04,-6.98e+03,-3.46e+03,2.50e+03,2.73e+04
4367,-1.06e+05,-2.91e+04,-3.05e+04,-1.80e+04,9.58e+03,-4.01e+03,8.42e+04
4368,-7.71e+04,-5.55e+02,-6.27e+03,1.60e+03,1.95e+03,8.12e+03,7.53e+04
4369,-2.69e+04,-9.08e+03,-4.97e+03,1.95e+03,-6.66e+02,-5.42e+03,2.25e+04
4370,-4.89e+04,-1.06e+04,-8.55e+03,-3.29e+03,-6.94e+03,-1.72e+03,4.16e+04
4371,-9.39e+04,-7.72e+03,-1.34e+04,-1.60e+04,2.27e+03,8.12e+03,8.91e+04
4372,-3.28e+04,-1.16e+04,-7.51e+03,-1.95e+04,-5.42e+02,-5.42e+03,4.22e+04
4373,-3.28e+04,-3.93e+03,-3.09e+03,-1.69e+03,-2.16e+01,7.06e+03,3.19e+04
4374,-1.01e+05,-1.85e+03,-7.46e+03,-4.78e+03,7.37e+02,-8.11e+03,9.80e+04
4375,-6.94e+04,-1.06e+04,-1.07e+04,-1.12e+04,9.95e+03,2.44e+03,6.44e+04
4376,-3.36e+04,-4.26e+03,-3.42e+03,-2.07e+04,2.78e+02,7.06e+03,4.82e+04
4377,-9.96e+04,-1.19e+03,-6.80e+03,-1.95e+04,-3.10e+02,-8.11e+03,1.03e+05
4378,-1.01e+05,-1.31e+03,-4.35e+03,-4.67e+03,-7.73e+02,7.53e+03,9.91e+04
4379,-3.36e+04,-1.73e+03,-1.73e+03,-3.94e+03,1.63e+02,-7.36e+03,3.50e+04
4380,-6.83e+04,-3.44e+03,-5.16e+03,-1.25e+04,-9.28e+03,-7.22e+02,6.95e+04
4381,-9.50e+04,1.11e+03,-1.93e+03,-1.95e+04,3.50e+01,7.53e+03,1.01e+05
4382,-3.20e+04,-1.05e+03,-1.05e+03,-2.01e+04,-4.00e+01,-7.36e+03,4.82e+04
4383,-3.21e+04,-1.42e+03,-1.21e+03,-4.34e+03,-6.78e+01,7.07e+03,3.39e+04
4384,-9.50e+04,-1.01e+03,-2.66e+03,-4.34e+03,3.10e+02,-7.18e+03,9.44e+04
4385,-6.39e+04,-9.15e+02,-2.00e+03,-1.22e+04,8.41e+03,-2.08e+02,6.75e+04
4386,-2.99e+04,-5.08e+02,-3.01e+02,-1.92e+04,-1.38e+01,7.07e+03,4.61e+04
4387,-8.86e+04,1.77e+03,1.15e+02,-1.90e+04,-3.75e+01,-7.18e+03,9.62e+04
4388,-8.85e+04,-9.74e+02,-2.02e+03,-4.53e+03,-8.76e+01,6.69e+03,8.81e+04
4389,-2.98e+04,-1.22e+03,-9.36e+02,-4.56e+03,1.27e+00,-6.62e+03,3.19e+04
4390,-5.93e+04,-4.12e+02,-9.00e+02,-1.19e+04,-7.71e+03,4.21e+02,6.36e+04
4391,-8.19e+04,1.84e+03,7.91e+02,-1.83e+04,5.55e+01,6.69e+03,8.98e+04
4392,-2.77e+04,-2.99e+02,-1.08e+01,-1.85e+04,2.31e+00,-6.62e+03,4.37e+04
4393,-2.76e+04,-1.15e+03,-8.46e+02,-4.89e+03,2.40e+01,6.12e+03,2.98e+04
4394,-8.18e+04,-9.65e+02,-1.77e+03,-4.86e+03,1.70e+01,-6.19e+03,8.16e+04
4395,-5.48e+04,-2.60e+02,-5.33e+02,-1.17e+04,7.09e+03,-4.88e+02,5.93e+04
4396,-2.54e+04,-2.20e+02,7.96e+01,-1.78e+04,1.63e+00,6.12e+03,4.13e+04
4397,-7.53e+04,1.82e+03,1.02e+03,-1.77e+04,-7.32e+01,-6.19e+03,8.33e+04
4398,-7.51e+04,-9.86e+02,-1.67e+03,-5.30e+03,8.06e+00,5.67e+03,7.50e+04
4399,-2.53e+04,-1.07e+03,-7.94e+02,-5.33e+03,-2.66e+01,-5.61e+03,2.78e+04
4400,-5.03e+04,-2.17e+02,-4.13e+02,-1.16e+04,-6.50e+03,4.97e+02,5.51e+04
4401,-6.87e+04,1.78e+03,1.09e+03,-1.71e+04,7.67e+01,5.67e+03,7.68e+04
4402,-2.32e+04,-1.56e+02,1.25e+02,-1.72e+04,-4.73e+00,-5.61e+03,3.90e+04
4403,-2.31e+04,-1.01e+03,-7.62e+02,-5.82e+03,2.90e+01,5.10e+03,2.59e+04
4404,-6.86e+04,-1.01e+03,-1.63e+03,-5.79e+03,-1.71e+01,-5.16e+03,6.86e+04
4405,-4.59e+04,-1.91e+02,-3.59e+02,-1.15e+04,5.93e+03,-5.00e+02,5.09e+04
4406,-2.10e+04,-9.66e+01,1.53e+02,-1.66e+04,9.03e+00,5.10e+03,3.67e+04
4407,-6.21e+04,1.74e+03,1.12e+03,-1.65e+04,-7.92e+01,-5.16e+03,7.03e+04
4408,-6.20e+04,-1.03e+03,-1.61e+03,-6.31e+03,2.22e+01,4.64e+03,6.22e+04
4409,-2.09e+04,-9.42e+02,-7.40e+02,-6.34e+03,-3.00e+01,-4.59e+03,2.42e+04
4410,-4.15e+04,-1.65e+02,-3.31e+02,-1.15e+04,-5.36e+03,4.98e+02,4.68e+04
4411,-5.56e+04,1.72e+03,1.14e+03,-1.60e+04,8.21e+01,4.64e+03,6.39e+04
4412,-1.88e+04,-2.96e+01,1.73e+02,-1.61e+04,-1.49e+01,-4.59e+03,3.46e+04
4413,-1.87e+04,-8.49e+02,-7.31e+02,-6.88e+03,3.58e+01,4.07e+03,2.26e+04
4414,-5.54e+04,-1.02e+03,-1.61e+03,-6.86e+03,-2.77e+01,-4.13e+03,5.59e+04
4415,-3.72e+04,-1.22e+02,-3.13e+02,-1.15e+04,4.80e+03,-4.97e+02,4.28e+04
4416,-1.66e+04,5.70e+01,1.74e+02,-1.56e+04,2.63e+01,4.07e+03,3.25e+04
4417,-4.90e+04,1.74e+03,1.16e+03,-1.55e+04,-8.68e+01,-4.13e+03,5.76e+04
4418,-4.89e+04,-9.65e+02,-1.61e+03,-7.46e+03,3.83e+01,3.60e+03,4.97e+04
4419,-1.65e+04,-7.02e+02,-7.43e+02,-7.47e+03,-4.62e+01,-3.55e+03,2.13e+04
4420,-3.28e+04,-3.73e+01,-3.10e+02,-1.15e+04,-4.22e+03,4.91e+02,3.89e+04
4421,-4.24e+04,1.82e+03,1.17e+03,-1.51e+04,9.74e+01,3.60e+03,5.14e+04
4422,-1.45e+04,1.85e+02,1.43e+02,-1.51e+04,-4.26e+01,-3.55e+03,3.06e+04
4423,-1.45e+04,-4.59e+02,-7.78e+02,-8.14e+03,6.45e+01,3.02e+03,2.04e+04
4424,-4.22e+04,-8.25e+02,-1.64e+03,-8.14e+03,-4.75e+01,-3.06e+03,4.37e+04
4425,-2.84e+04,1.23e+02,-3.26e+02,-1.16e+04,3.63e+03,-4.81e+02,3.53e+04
4426,-1.25e+04,3.78e+02,5.91e+01,-1.47e+04,6.30e+01,3.02e+03,2.90e+04
4427,-3.56e+04,1.99e+03,1.18e+03,-1.47e+04,-1.04e+02,-3.06e+03,4.54e+04
4428,-3.55e+04,-6.10e+02,-1.65e+03,-8.98e+03,5.71e+01,2.49e+03,3.80e+04
4429,-1.25e+04,-1.13e+02,-8.23e+02,-8.96e+03,-7.50e+01,-2.46e+03,2.01e+04
4430,-2.40e+04,3.78e+02,-3.56e+02,-1.19e+04,-3.00e+03,4.64e+02,3.21e+04
4431,-2.88e+04,2.26e+03,1.22e+03,-1.45e+04,9.68e+01,2.49e+03,3.98e+04
4432,-1.08e+04,6.30e+02,-7.98e+01,-1.45e+04,-6.76e+01,-2.46e+03,2.78e+04
4433,-1.08e+04,2.06e+02,-8.42e+02,-1.00e+04,5.20e+01,1.87e+03,2.06e+04
4434,-2.86e+04,-5.03e+02,-1.63e+03,-1.00e+04,-3.44e+01,-1.85e+03,3.27e+04
4435,-1.98e+04,6.61e+02,-3.77e+02,-1.23e+04,2.32e+03,-4.54e+02,2.95e+04
4436,-9.37e+03,8.13e+02,-2.35e+02,-1.45e+04,1.52e+01,1.87e+03,2.71e+04
4437,-2.18e+04,2.43e+03,1.30e+03,-1.43e+04,-4.01e+01,-1.85e+03,3.44e+04
4438,-2.17e+04,-1.16e+03,-1.61e+03,-1.11e+04,-5.89e+01,1.19e+03,2.81e+04
4439,-9.17e+03,-5.08e+01,-7.65e+02,-1.13e+04,1.16e+02,-1.19e+03,2.15e+04
4440,-1.56e+04,5.11e+02,-4.15e+02,-1.29e+04,-1.57e+03,5.47e+02,2.74e+04
4441,-1.48e+04,1.83e+03,1.38e+03,-1.36e+04,-1.22e+02,1.19e+03,2.88e+04
4442,-7.86e+03,5.08e+02,-2.06e+02,-1.44e+04,1.87e+02,-1.19e+03,2.63e+04
4443,-7.00e+03,-2.15e+03,-5.03e+02,-1.23e+04,-5.63e+02,5.83e+02,2.22e+04
4444,-1.51e+04,-3.64e+03,-1.67e+03,-1.18e+04,2.06e+02,-5.62e+02,2.39e+04
4445,-1.15e+04,-9.43e+02,-4.24e+02,-1.31e+04,8.43e+02,-8.03e+02,2.53e+04
4446,-4.79e+03,-1.20e+03,4.43e+02,-1.28e+04,-6.39e+02,5.83e+02,2.27e+04
4447,-8.17e+03,-6.86e+02,1.28e+03,-1.14e+04,3.29e+02,-5.62e+02,2.16e+04
4448,-9.26e+03,-8.13e+03,-1.82e+03,-1.02e+04,-2.36e+02,2.19e+02,1.90e+04
4449,-3.82e+03,-6.96e+03,-7.45e+01,-1.18e+04,7.93e+02,-2.52e+02,2.13e+04
4450,-6.45e+03,-4.13e+03,-5.59e+01,-1.16e+04,-5.27e+02,1.12e+03,2.10e+04
4451,-3.79e+03,-5.79e+03,5.28e+02,-6.10e+03,-3.89e+02,2.19e+02,1.20e+04
4452,-6.55e+02,-5.61e+03,1.28e+03,-6.86e+03,8.06e+02,-2.52e+02,1.35e+04
4453,1.68e+03,-1.04e+04,2.06e+03,-6.37e+03,-1.12e+03,5.08e+02,1.66e+04
4454,-3.75e+03,-1.00e+04,-4.34e+02,-5.22e+03,3.21e+02,-1.77e+02,1.24e+04
4455,-1.59e+03,-7.61e+03,8.89e+02,-6.14e+03,6.94e+02,-6.80e+02,1.32e+04
4456,-3.38e+04,-1.03e+04,-9.68e+03,-8.76e+03,-3.46e+03,2.40e+03,2.91e+04
4457,3.38e+04,1.03e+04,9.68e+03,-8.76e+03,-3.46e+03,-2.40e+03,2.91e+04
4458,2.22e+04,-1.89e+03,2.70e+02,5.61e+03,-6.66e+02,5.56e+03,2.68e+04
4459,-2.22e+04,1.89e+03,-2.70e+02,5.61e+03,-6.66e+02,-5.56e+03,2.68e+04
4460,-1.07e-02,1.67e-02,-2.23e-02,5.48e+02,5.51e+03,-1.77e-03,9.59e+03
4461,2.81e+04,6.40e+02,2.80e+03,-1.58e+04,-5.42e+02,5.56e+03,3.93e+04
4462,-2.81e+04,-6.40e+02,-2.80e+03,-1.58e+04,-5.42e+02,-5.56e+03,3.93e+04
4463,-3.04e+04,1.63e+03,-7.10e+02,-1.97e+03,-2.16e+01,7.27e+03,3.36e+04
4464,3.04e+04,-1.63e+03,7.10e+02,-1.97e+03,-2.16e+01,-7.27e+03,3.36e+04
4465,-1.94e-02,-5.96e-02,2.43e-02,-9.11e+03,-8.36e+03,4.21e-03,2.14e+04
4466,-3.12e+04,1.30e+03,-1.04e+03,-2.10e+04,2.78e+02,7.27e+03,4.97e+04
4467,3.12e+04,-1.30e+03,1.04e+03,-2.10e+04,2.78e+02,-7.27e+03,4.97e+04
4468,3.26e+04,-5.39e+02,7.62e+02,-5.67e+03,1.63e+02,7.47e+03,3.64e+04
4469,-3.26e+04,5.38e+02,-7.61e+02,-5.67e+03,1.63e+02,-7.47e+03,3.64e+04
4470,-2.10e-02,-3.10e-01,1.49e-01,-1.37e+04,8.83e+03,-2.91e-02,2.82e+04
4471,3.10e+04,-1.22e+03,8.05e+01,-2.18e+04,-4.03e+01,7.47e+03,5.09e+04
4472,-3.10e+04,1.22e+03,-7.99e+01,-2.18e+04,-4.00e+01,-7.47e+03,5.09e+04
4473,-3.14e+04,1.79e+02,-5.28e+02,-6.39e+03,-6.78e+01,7.15e+03,3.53e+04
4474,3.14e+04,-1.82e+02,5.30e+02,-6.39e+03,-6.76e+01,-7.15e+03,3.53e+04
4475,3.99e-02,-8.47e-01,4.83e-01,-1.42e+04,-8.27e+03,3.98e-02,2.85e+04
4476,-2.92e+04,1.09e+03,3.85e+02,-2.13e+04,-1.38e+01,7.15e+03,4.91e+04
4477,2.92e+04,-1.10e+03,-3.84e+02,-2.13e+04,-1.33e+01,-7.15e+03,4.91e+04
4478,2.92e+04,-1.34e+02,3.58e+02,-6.67e+03,8.22e-01,6.69e+03,3.34e+04
4479,-2.92e+04,1.30e+02,-3.56e+02,-6.67e+03,1.27e+00,-6.69e+03,3.34e+04
4480,1.98e-01,-1.98e+00,1.01e+00,-1.40e+04,7.59e+03,-1.59e-01,2.76e+04
4481,2.71e+04,-1.06e+03,-5.66e+02,-2.06e+04,1.45e+00,6.69e+03,4.67e+04
4482,-2.71e+04,1.05e+03,5.69e+02,-2.06e+04,2.31e+00,-6.69e+03,4.67e+04
4483,-2.71e+04,6.73e+01,-3.26e+02,-7.02e+03,2.40e+01,6.18e+03,3.14e+04
4484,2.71e+04,-7.55e+01,3.31e+02,-7.02e+03,2.44e+01,-6.18e+03,3.14e+04
4485,8.34e-01,-3.55e+00,2.00e+00,-1.38e+04,-6.99e+03,1.43e-01,2.68e+04
4486,-2.49e+04,9.93e+02,6.00e+02,-1.99e+04,1.63e+00,6.18e+03,4.43e+04
4487,2.49e+04,-1.00e+03,-5.94e+02,-1.99e+04,2.38e+00,-6.18e+03,4.44e+04
4488,2.49e+04,-3.50e+01,3.28e+02,-7.46e+03,-2.67e+01,5.66e+03,2.96e+04
4489,-2.49e+04,2.47e+01,-3.23e+02,-7.46e+03,-2.66e+01,-5.66e+03,2.96e+04
4490,2.00e+00,-5.31e+00,2.79e+00,-1.37e+04,6.42e+03,-3.88e-01,2.62e+04
4491,2.27e+04,-9.52e+02,-5.89e+02,-1.93e+04,-4.49e+00,5.66e+03,4.21e+04
4492,-2.27e+04,9.43e+02,5.96e+02,-1.93e+04,-4.73e+00,-5.66e+03,4.21e+04
4493,-2.27e+04,-1.68e+01,-3.36e+02,-7.95e+03,2.90e+01,5.14e+03,2.79e+04
4494,2.27e+04,1.41e+01,3.39e+02,-7.95e+03,2.67e+01,-5.14e+03,2.79e+04
4495,4.96e+00,-3.53e+00,3.35e+00,-1.37e+04,-5.86e+03,-3.33e-01,2.58e+04
4496,-2.05e+04,8.99e+02,5.80e+02,-1.88e+04,9.03e+00,5.14e+03,3.99e+04
4497,2.06e+04,-8.99e+02,-5.74e+02,-1.88e+04,4.33e+00,-5.14e+03,3.99e+04
4498,2.05e+04,7.72e+01,3.46e+02,-8.47e+03,-2.22e+01,4.62e+03,2.63e+04
4499,-2.05e+04,-4.15e+01,-3.54e+02,-8.48e+03,-3.00e+01,-4.63e+03,2.63e+04
4500,8.37e+00,8.57e+00,3.82e-01,-1.36e+04,5.30e+03,1.34e+00,2.54e+04
4501,1.84e+04,-8.36e+02,-5.67e+02,-1.82e+04,-4.46e-01,4.62e+03,3.77e+04
4502,-1.84e+04,8.71e+02,5.59e+02,-1.82e+04,-1.49e+01,-4.63e+03,3.78e+04
4503,-1.84e+04,-2.74e+01,-3.79e+02,-9.01e+03,3.58e+01,4.11e+03,2.50e+04
4504,1.84e+04,1.79e+02,3.43e+02,-9.00e+03,1.38e+01,-4.11e+03,2.49e+04
4505,1.23e+01,5.22e+01,-6.95e+00,-1.36e+04,-4.74e+03,-7.53e+00,2.50e+04
4506,-1.62e+04,8.78e+02,5.27e+02,-1.77e+04,2.63e+01,4.11e+03,3.58e+04
4507,1.62e+04,-7.40e+02,-5.75e+02,-1.76e+04,-9.36e+00,-4.11e+03,3.56e+04
4508,1.62e+04,3.59e+02,3.28e+02,-9.53e+03,-1.16e-01,3.60e+03,2.37e+04
4509,-1.62e+04,6.70e+01,-4.14e+02,-9.56e+03,-4.62e+01,-3.59e+03,2.39e+04
4510,7.99e-01,1.60e+02,-2.57e+01,-1.36e+04,4.18e+03,1.90e+01,2.47e+04
4511,1.40e+04,-5.81e+02,-6.12e+02,-1.71e+04,2.51e+01,3.60e+03,3.35e+04
4512,-1.41e+04,9.53e+02,4.72e+02,-1.72e+04,-4.26e+01,-3.59e+03,3.39e+04
4513,-1.41e+04,3.01e+02,-4.52e+02,-1.01e+04,6.45e+01,3.07e+03,2.31e+04
4514,1.39e+04,6.71e+02,3.01e+02,-1.01e+04,-2.17e+01,-3.10e+03,2.27e+04
4515,-5.27e+01,3.90e+02,-5.30e+01,-1.36e+04,-3.62e+03,-4.79e+01,2.44e+04
4516,-1.22e+04,1.14e+03,3.85e+02,-1.67e+04,6.30e+01,3.07e+03,3.21e+04
4517,1.16e+04,-3.27e+02,-6.96e+02,-1.65e+04,-4.47e+01,-3.10e+03,3.15e+04
4518,1.15e+04,1.14e+03,2.79e+02,-1.06e+04,4.54e+01,2.60e+03,2.18e+04
4519,-1.22e+04,6.96e+02,-4.76e+02,-1.07e+04,-7.50e+01,-2.53e+03,2.26e+04
4520,-2.42e+02,7.82e+02,-8.82e+01,-1.36e+04,3.06e+03,9.19e+01,2.42e+04
4521,8.85e+03,1.72e+01,-8.49e+02,-1.60e+04,5.45e+01,2.60e+03,2.95e+04
4522,-1.04e+04,1.44e+03,2.67e+02,-1.62e+04,-6.76e+01,-2.53e+03,3.06e+04
4523,-1.04e+04,1.12e+03,-4.52e+02,-1.13e+04,5.20e+01,1.97e+03,2.26e+04
4524,8.68e+03,1.62e+03,2.81e+02,-1.13e+04,-3.77e+01,-2.09e+03,2.14e+04
4525,-7.23e+02,1.26e+03,-1.36e+02,-1.37e+04,-2.47e+03,-1.34e+02,2.42e+04
4526,-8.98e+03,1.72e+03,1.54e+02,-1.58e+04,1.52e+01,1.97e+03,2.93e+04
4527,5.48e+03,2.45e+02,-1.09e+03,-1.57e+04,-1.48e+01,-2.09e+03,2.80e+04
4528,5.22e+03,1.41e+03,2.71e+02,-1.22e+04,-6.49e+01,1.56e+03,2.19e+04
4529,-8.80e+03,8.03e+02,-3.99e+02,-1.20e+04,1.16e+02,-1.33e+03,2.28e+04
4530,-1.75e+03,1.36e+03,-2.21e+02,-1.39e+04,1.84e+03,1.06e+02,2.45e+04
4531,1.16e+03,-3.26e+02,-1.47e+03,-1.61e+04,-1.59e+02,1.56e+03,2.81e+04
4532,-7.49e+03,1.36e+03,1.60e+02,-1.51e+04,1.87e+02,-1.33e+03,2.76e+04
4533,-7.24e+03,-2.72e+03,-7.48e+02,-1.31e+04,-5.63e+02,7.10e+02,2.34e+04
4534,1.47e+03,-1.33e+03,1.90e+02,-1.36e+04,6.22e+02,-6.73e+02,2.38e+04
4535,-3.60e+03,-8.00e+02,-7.26e+02,-1.46e+04,-1.05e+03,3.94e+02,2.55e+04
4536,-5.03e+03,-1.77e+03,1.98e+02,-1.36e+04,-6.39e+02,7.10e+02,2.40e+04
4537,-2.65e+03,-3.09e+03,-1.57e+03,-1.66e+04,6.88e+02,-6.73e+02,2.88e+04
4538,5.79e+01,-1.04e+04,-3.16e+02,-1.46e+04,-2.04e+03,-6.40e+01,2.75e+04
4539,-6.19e+03,-1.25e+04,-2.45e+03,-1.32e+04,7.93e+02,-3.59e+02,2.46e+04
4540,-4.83e+03,-7.77e+03,-1.81e+03,-1.47e+04,2.31e+02,-1.49e+03,2.62e+04
4541,-9.80e+01,-1.04e+04,-3.83e+02,-1.24e+04,-1.79e+03,-6.40e+01,2.40e+04
4542,-3.03e+03,-1.11e+04,-1.09e+03,-8.30e+03,8.06e+02,-3.59e+02,1.72e+04
4543,-5.14e+03,-2.63e+04,-4.76e+03,-7.63e+03,-1.12e+03,8.02e+02,2.52e+04
4544,3.26e+03,-2.78e+04,-2.00e+03,-1.12e+04,2.62e+03,-7.96e+02,3.50e+04
4545,-1.97e+03,-1.93e+04,-2.71e+03,-9.96e+03,-8.85e+02,2.51e+03,2.46e+04
4546,1.06e+05,2.91e+04,3.05e+04,-1.80e+04,9.58e+03,4.01e+03,8.42e+04
4547,3.45e+04,1.21e+04,1.04e+04,-6.98e+03,-3.46e+03,-2.50e+03,2.73e+04
4548,2.69e+04,9.08e+03,4.97e+03,1.95e+03,-6.66e+02,5.42e+03,2.25e+04
4549,7.71e+04,5.55e+02,6.27e+03,1.60e+03,1.95e+03,-8.12e+03,7.53e+04
4550,4.89e+04,1.06e+04,8.55e+03,-3.29e+03,-6.94e+03,1.72e+03,4.16e+04
4551,3.28e+04,1.16e+04,7.51e+03,-1.95e+04,-5.42e+02,5.42e+03,4.22e+04
4552,9.39e+04,7.72e+03,1.34e+04,-1.60e+04,2.27e+03,-8.12e+03,8.91e+04
4553,1.01e+05,1.85e+03,7.46e+03,-4.78e+03,7.37e+02,8.11e+03,9.80e+04
4554,3.28e+04,3.93e+03,3.09e+03,-1.69e+03,-2.16e+01,-7.06e+03,3.19e+04
4555,6.94e+04,1.06e+04,1.07e+04,-1.12e+04,9.95e+03,-2.44e+03,6.44e+04
4556,9.96e+04,1.19e+03,6.80e+03,-1.95e+04,-3.10e+02,8.11e+03,1.03e+05
4557,3.36e+04,4.26e+03,3.42e+03,-2.07e+04,2.78e+02,-7.06e+03,4.82e+04
4558,3.36e+04,1.73e+03,1.73e+03,-3.94e+03,1.63e+02,7.36e+03,3.50e+04
4559,1.01e+05,1.31e+03,4.35e+03,-4.67e+03,-7.73e+02,-7.53e+03,9.91e+04
4560,6.83e+04,3.44e+03,5.16e+03,-1.25e+04,-9.28e+03,7.22e+02,6.95e+04
4561,3.20e+04,1.05e+03,1.05e+03,-2.01e+04,-4.03e+01,7.36e+03,4.82e+04
4562,9.50e+04,-1.11e+03,1.93e+03,-1.95e+04,3.53e+01,-7.53e+03,1.01e+05
4563,9.50e+04,1.00e+03,2.66e+03,-4.35e+03,3.10e+02,7.18e+03,9.44e+04
4564,3.21e+04,1.42e+03,1.22e+03,-4.34e+03,-6.76e+01,-7.07e+03,3.39e+04
4565,6.39e+04,9.14e+02,2.01e+03,-1.22e+04,8.41e+03,2.08e+02,6.75e+04
4566,8.86e+04,-1.77e+03,-1.14e+02,-1.90e+04,-3.81e+01,7.18e+03,9.62e+04
4567,2.99e+04,5.07e+02,3.02e+02,-1.92e+04,-1.33e+01,-7.07e+03,4.61e+04
4568,2.98e+04,1.22e+03,9.39e+02,-4.56e+03,8.22e-01,6.62e+03,3.19e+04
4569,8.85e+04,9.71e+02,2.02e+03,-4.54e+03,-8.74e+01,-6.69e+03,8.81e+04
4570,5.93e+04,4.09e+02,9.03e+02,-1.19e+04,-7.71e+03,-4.22e+02,6.36e+04
4571,2.77e+04,2.96e+02,1.45e+01,-1.85e+04,1.45e+00,6.62e+03,4.37e+04
4572,8.19e+04,-1.84e+03,-7.89e+02,-1.83e+04,5.62e+01,-6.69e+03,8.98e+04
4573,8.18e+04,9.60e+02,1.77e+03,-4.87e+03,1.67e+01,6.19e+03,8.16e+04
4574,2.76e+04,1.14e+03,8.52e+02,-4.90e+03,2.44e+01,-6.12e+03,2.99e+04
4575,5.48e+04,2.55e+02,5.37e+02,-1.17e+04,7.09e+03,4.88e+02,5.93e+04
4576,7.53e+04,-1.83e+03,-1.02e+03,-1.77e+04,-7.40e+01,6.19e+03,8.33e+04
4577,2.54e+04,2.15e+02,-7.33e+01,-1.78e+04,2.38e+00,-6.12e+03,4.13e+04
4578,2.53e+04,1.07e+03,8.00e+02,-5.34e+03,-2.67e+01,5.61e+03,2.78e+04
4579,7.51e+04,9.80e+02,1.68e+03,-5.31e+03,7.80e+00,-5.67e+03,7.50e+04
4580,5.03e+04,2.10e+02,4.19e+02,-1.16e+04,-6.50e+03,-4.97e+02,5.51e+04
4581,2.32e+04,1.49e+02,-1.17e+02,-1.72e+04,-4.49e+00,5.61e+03,3.90e+04
4582,6.87e+04,-1.79e+03,-1.09e+03,-1.71e+04,7.57e+01,-5.67e+03,7.67e+04
4583,6.85e+04,1.01e+03,1.63e+03,-5.80e+03,-1.61e+01,5.15e+03,6.86e+04
4584,2.31e+04,1.01e+03,7.64e+02,-5.83e+03,2.67e+01,-5.09e+03,2.60e+04
4585,4.59e+04,1.83e+02,3.63e+02,-1.15e+04,5.93e+03,5.00e+02,5.09e+04
4586,6.21e+04,-1.74e+03,-1.12e+03,-1.65e+04,-7.50e+01,5.15e+03,7.03e+04
4587,2.10e+04,9.33e+01,-1.49e+02,-1.67e+04,4.33e+00,-5.09e+03,3.68e+04
4588,2.09e+04,9.60e+02,7.24e+02,-6.35e+03,-2.22e+01,4.58e+03,2.42e+04
4589,6.20e+04,1.06e+03,1.60e+03,-6.31e+03,1.68e+01,-4.64e+03,6.22e+04
4590,4.15e+04,1.71e+02,3.24e+02,-1.15e+04,-5.36e+03,-4.99e+02,4.68e+04
4591,1.88e+04,4.70e+01,-1.89e+02,-1.61e+04,-4.46e-01,4.58e+03,3.46e+04
4592,5.56e+04,-1.69e+03,-1.15e+03,-1.60e+04,6.70e+01,-4.64e+03,6.39e+04
4593,5.55e+04,1.14e+03,1.55e+03,-6.82e+03,-1.72e+01,4.12e+03,5.59e+04
4594,1.87e+04,9.43e+02,6.71e+02,-6.88e+03,1.38e+01,-4.08e+03,2.26e+04
4595,3.72e+04,1.77e+02,2.74e+02,-1.15e+04,4.80e+03,4.99e+02,4.28e+04
4596,4.91e+04,-1.60e+03,-1.18e+03,-1.54e+04,-5.64e+01,4.12e+03,5.75e+04
4597,1.65e+04,2.41e+01,-2.48e+02,-1.55e+04,-9.36e+00,-4.08e+03,3.24e+04
4598,1.64e+04,9.88e+02,5.98e+02,-7.36e+03,-1.16e-01,3.58e+03,2.11e+04
4599,4.90e+04,1.27e+03,1.49e+03,-7.28e+03,1.17e+01,-3.62e+03,4.97e+04
4600,3.28e+04,2.33e+02,2.10e+02,-1.14e+04,-4.24e+03,-5.05e+02,3.88e+04
4601,1.42e+04,4.80e+01,-3.43e+02,-1.49e+04,2.51e+01,3.58e+03,3.02e+04
4602,4.27e+04,-1.44e+03,-1.22e+03,-1.47e+04,3.79e+01,-3.62e+03,5.12e+04
4603,4.26e+04,1.51e+03,1.42e+03,-7.65e+03,-7.66e+00,3.13e+03,4.35e+04
4604,1.41e+04,1.15e+03,5.06e+02,-7.76e+03,-2.17e+01,-3.10e+03,1.96e+04
4605,2.84e+04,3.79e+02,1.27e+02,-1.13e+04,3.71e+03,5.18e+02,3.49e+04
4606,3.64e+04,-1.16e+03,-1.25e+03,-1.39e+04,-2.56e+01,3.13e+03,4.50e+04
4607,1.18e+04,1.52e+02,-4.91e+02,-1.42e+04,-4.47e+01,-3.10e+03,2.78e+04
4608,1.16e+04,1.50e+03,4.29e+02,-7.97e+03,4.54e+01,2.63e+03,1.81e+04
4609,3.63e+04,1.89e+03,1.40e+03,-7.87e+03,-3.54e+00,-2.69e+03,3.75e+04
4610,2.41e+04,6.95e+02,6.26e+01,-1.10e+04,-3.21e+03,-5.58e+02,3.09e+04
4611,9.00e+03,3.67e+02,-6.99e+02,-1.33e+04,5.45e+01,2.63e+03,2.52e+04
4612,3.01e+04,-7.60e+02,-1.25e+03,-1.30e+04,3.23e+01,-2.69e+03,3.86e+04
4613,2.99e+04,2.35e+03,1.54e+03,-7.91e+03,1.13e+00,2.31e+03,3.14e+04
4614,8.84e+03,2.00e+03,4.46e+02,-7.94e+03,-3.77e+01,-2.17e+03,1.62e+04
4615,1.96e+04,1.21e+03,8.61e+01,-1.05e+04,2.79e+03,6.23e+02,2.68e+04
4616,2.36e+04,-3.76e+02,-1.18e+03,-1.19e+04,-9.37e+01,2.31e+03,3.22e+04
4617,5.64e+03,6.28e+02,-9.26e+02,-1.23e+04,-1.48e+01,-2.17e+03,2.24e+04
4618,5.64e+03,2.40e+03,6.94e+02,-7.71e+03,-6.49e+01,1.66e+03,1.43e+04
4619,2.31e+04,2.37e+03,1.98e+03,-8.01e+03,6.33e+01,-2.04e+03,2.54e+04
4620,1.47e+04,1.77e+03,3.06e+02,-9.94e+03,-2.42e+03,-7.09e+02,2.25e+04
4621,1.58e+03,6.63e+02,-1.04e+03,-1.15e+04,-1.59e+02,1.66e+03,2.03e+04
4622,1.58e+04,-7.58e+02,-1.15e+03,-1.15e+04,2.72e+02,-2.04e+03,2.63e+04
4623,1.46e+04,2.14e+02,2.38e+03,-9.14e+03,-1.87e+02,1.84e+03,2.10e+04
4624,2.30e+03,6.02e+02,1.02e+03,-7.91e+03,6.22e+02,-7.32e+02,1.39e+04
4625,8.85e+03,1.39e+03,7.06e+02,-9.88e+03,2.03e+03,6.53e+02,1.92e+04
4626,4.22e+03,-4.23e+03,-2.06e+03,-1.39e+04,-4.53e+02,1.84e+03,2.55e+04
4627,-1.82e+03,-1.16e+03,-7.44e+02,-1.09e+04,6.88e+02,-7.32e+02,1.89e+04
4628,-5.46e+02,-1.18e+04,-9.19e+02,-1.03e+04,-2.04e+03,-6.36e+01,2.13e+04
4629,7.17e+03,-1.01e+04,1.98e+03,-1.17e+04,2.81e+03,-6.21e+02,2.60e+04
4630,-3.24e+02,-6.61e+03,-1.20e+03,-1.19e+04,-8.21e+02,1.20e+03,2.16e+04
4631,-7.02e+02,-1.19e+04,-9.86e+02,-8.15e+03,-1.79e+03,-6.36e+01,1.82e+04
4632,-7.72e+02,-1.35e+04,-1.42e+03,-1.85e+04,2.68e+03,-6.21e+02,3.47e+04
4633,4.73e+03,-4.88e+04,-6.45e+03,-1.60e+04,-5.45e+03,-9.37e+01,5.70e+04
4634,-6.27e+03,-5.00e+04,-1.15e+04,-9.09e+03,2.62e+03,-9.39e+02,4.45e+04
4635,-3.90e+03,-3.25e+04,-6.64e+03,-1.35e+04,5.69e+02,-6.42e+03,3.77e+04
4636,1.07e+05,3.11e+04,3.14e+04,-2.29e+04,9.58e+03,4.12e+03,8.72e+04
4637,2.49e+05,7.99e+04,8.59e+04,-5.37e+04,-1.60e+04,-8.02e+02,1.92e+05
4638,1.89e+05,8.32e+03,3.21e+04,-8.45e+03,-2.15e+03,9.78e+03,1.72e+05
4639,7.82e+04,2.95e+03,7.30e+03,-6.48e+03,1.95e+03,-7.76e+03,7.53e+04
4640,1.30e+05,1.90e+04,2.72e+04,-1.96e+04,1.70e+04,-5.55e+03,1.16e+05
4641,1.77e+05,3.11e+03,2.69e+04,-1.67e+04,-2.52e+03,9.78e+03,1.67e+05
4642,9.49e+04,1.01e+04,1.45e+04,-2.40e+04,2.27e+03,-7.76e+03,9.36e+04
4643,1.01e+05,1.30e+03,7.22e+03,-1.30e+03,7.37e+02,7.51e+03,9.77e+04
4644,1.87e+05,5.74e+03,1.97e+04,-2.86e+03,-2.57e+03,-7.90e+03,1.76e+05
4645,1.48e+05,9.55e+03,2.12e+04,-1.23e+04,-1.32e+04,2.74e+03,1.36e+05
4646,9.94e+04,6.32e+02,6.56e+03,-1.60e+04,-3.10e+02,7.51e+03,1.01e+05
4647,1.71e+05,-1.14e+03,1.28e+04,-1.42e+04,-7.91e+02,-7.90e+03,1.68e+05
4648,1.70e+05,2.43e+03,9.01e+03,2.07e+03,1.36e+03,7.53e+03,1.65e+05
4649,1.01e+05,2.18e+03,4.72e+03,9.90e+02,-7.73e+02,-7.27e+03,9.84e+04
4650,1.37e+05,1.55e+03,9.24e+03,-6.87e+03,9.73e+03,-1.09e+02,1.33e+05
4651,1.59e+05,-2.28e+03,4.30e+03,-1.29e+04,2.31e+02,7.53e+03,1.61e+05
4652,9.54e+04,-2.38e+02,2.31e+03,-1.39e+04,3.53e+01,-7.27e+03,9.82e+04
4653,9.55e+04,2.10e+03,3.13e+03,1.91e+03,3.10e+02,7.05e+03,9.38e+04
4654,1.59e+05,1.92e+03,5.59e+03,2.23e+03,-4.81e+02,-7.00e+03,1.56e+05
4655,1.28e+05,7.11e+02,4.15e+03,-5.73e+03,-8.56e+03,-5.22e+02,1.27e+05
4656,8.90e+04,-6.76e+02,3.54e+02,-1.27e+04,-3.81e+01,7.05e+03,9.27e+04
4657,1.48e+05,-2.70e+03,9.67e+02,-1.23e+04,-1.83e+02,-7.00e+03,1.51e+05
4658,1.48e+05,1.76e+03,4.17e+03,2.04e+03,1.26e+02,6.57e+03,1.45e+05
4659,8.89e+04,2.05e+03,2.49e+03,1.81e+03,-8.74e+01,-6.57e+03,8.75e+04
4660,1.19e+05,1.43e+02,2.00e+03,-5.32e+03,7.77e+03,9.04e+02,1.19e+05
4661,1.37e+05,-2.73e+03,-3.14e+02,-1.18e+04,9.70e+01,6.57e+03,1.41e+05
4662,8.24e+04,-7.65e+02,-3.27e+02,-1.20e+04,5.62e+01,-6.57e+03,8.62e+04
4663,8.22e+04,1.97e+03,2.20e+03,1.48e+03,1.67e+01,6.10e+03,8.08e+04
4664,1.36e+05,1.73e+03,3.58e+03,1.61e+03,-2.46e+01,-6.08e+03,1.34e+05
4665,1.10e+05,7.49e+01,1.28e+03,-5.16e+03,-7.13e+03,-9.67e+02,1.10e+05
4666,7.57e+04,-8.14e+02,-5.82e+02,-1.13e+04,-7.40e+01,6.10e+03,7.96e+04
4667,1.26e+05,-2.69e+03,-8.39e+02,-1.12e+04,-8.07e+01,-6.08e+03,1.30e+05
4668,1.25e+05,1.74e+03,3.30e+03,1.12e+03,-2.76e+01,5.58e+03,1.23e+05
4669,7.55e+04,1.91e+03,2.08e+03,1.03e+03,7.80e+00,-5.59e+03,7.42e+04
4670,1.01e+05,3.87e+01,9.60e+02,-5.09e+03,6.52e+03,9.98e+02,1.01e+05
4671,1.15e+05,-2.64e+03,-1.08e+03,-1.07e+04,5.94e+01,5.58e+03,1.19e+05
4672,6.91e+04,-8.57e+02,-6.89e+02,-1.08e+04,7.57e+01,-5.59e+03,7.29e+04
4673,6.89e+04,1.85e+03,1.99e+03,5.31e+02,-1.61e+01,5.08e+03,6.76e+04
4674,1.14e+05,1.76e+03,3.13e+03,6.13e+02,3.24e+01,-5.08e+03,1.12e+05
4675,9.18e+04,3.20e+01,8.19e+02,-5.06e+03,-5.94e+03,-9.98e+02,9.24e+04
4676,6.25e+04,-9.01e+02,-7.60e+02,-1.02e+04,-7.50e+01,5.08e+03,6.63e+04
4677,1.04e+05,-2.60e+03,-1.23e+03,-1.01e+04,-5.55e+01,-5.08e+03,1.08e+05
4678,1.03e+05,1.80e+03,2.99e+03,8.76e+01,-3.35e+01,4.57e+03,1.01e+05
4679,6.23e+04,1.81e+03,1.92e+03,3.82e+00,1.68e+01,-4.58e+03,6.10e+04
4680,8.30e+04,2.61e+01,7.10e+02,-5.04e+03,5.36e+03,9.97e+02,8.36e+04
4681,9.30e+04,-2.55e+03,-1.35e+03,-9.56e+03,5.35e+01,4.57e+03,9.68e+04
4682,5.59e+04,-9.40e+02,-8.30e+02,-9.65e+03,6.70e+01,-4.58e+03,5.97e+04
4683,5.57e+04,1.77e+03,1.82e+03,-5.27e+02,-1.72e+01,4.07e+03,5.44e+04
4684,9.23e+04,1.84e+03,2.84e+03,-4.34e+02,2.77e+01,-4.06e+03,9.02e+04
4685,7.42e+04,2.55e+01,5.97e+02,-5.03e+03,-4.79e+03,-9.92e+02,7.49e+04
4686,4.94e+04,-9.65e+02,-9.13e+02,-9.09e+03,-5.64e+01,4.07e+03,5.32e+04
4687,8.22e+04,-2.48e+03,-1.48e+03,-8.98e+03,-5.97e+01,-4.06e+03,8.59e+04
4688,8.14e+04,1.87e+03,2.64e+03,-9.24e+02,-2.70e+01,3.56e+03,7.94e+04
4689,4.92e+04,1.75e+03,1.69e+03,-1.03e+03,1.17e+01,-3.58e+03,4.79e+04
4690,6.55e+04,3.18e+01,4.56e+02,-5.00e+03,4.22e+03,9.81e+02,6.63e+04
4691,7.15e+04,-2.37e+03,-1.60e+03,-8.36e+03,6.14e+01,3.56e+03,7.52e+04
4692,4.29e+04,-9.61e+02,-1.02e+03,-8.46e+03,3.79e+01,-3.58e+03,4.67e+04
4693,4.27e+04,1.76e+03,1.53e+03,-1.45e+03,-7.66e+00,3.11e+03,4.15e+04
4694,7.08e+04,1.90e+03,2.42e+03,-1.33e+03,2.85e+01,-3.09e+03,6.89e+04
4695,5.69e+04,6.63e+01,2.94e+02,-4.89e+03,-3.68e+03,-9.66e+02,5.78e+04
4696,3.65e+04,-9.11e+02,-1.15e+03,-7.72e+03,-2.56e+01,3.11e+03,4.02e+04
4697,6.13e+04,-2.17e+03,-1.64e+03,-7.61e+03,-5.58e+01,-3.09e+03,6.48e+04
4698,6.06e+04,1.90e+03,2.29e+03,-1.55e+03,-6.30e+01,2.67e+03,5.88e+04
4699,3.62e+04,1.83e+03,1.37e+03,-1.66e+03,-3.54e+00,-2.69e+03,3.51e+04
4700,4.86e+04,1.51e+02,1.62e+02,-4.62e+03,3.20e+03,9.42e+02,4.94e+04
4701,5.20e+04,-1.78e+03,-1.40e+03,-6.66e+03,-3.45e+01,2.67e+03,5.50e+04
4702,3.01e+04,-8.17e+02,-1.28e+03,-6.76e+03,3.23e+01,-2.69e+03,3.36e+04
4703,2.98e+04,1.98e+03,1.38e+03,-1.41e+03,1.13e+00,2.31e+03,2.85e+04
4704,5.14e+04,1.87e+03,2.63e+03,-1.44e+03,1.21e+02,-2.39e+03,4.94e+04
4705,4.08e+04,3.94e+02,3.31e+02,-4.03e+03,-2.90e+03,-9.61e+02,4.14e+04
4706,2.34e+04,-7.47e+02,-1.34e+03,-5.42e+03,-9.37e+01,2.31e+03,2.65e+04
4707,4.44e+04,-1.15e+03,-3.92e+02,-5.46e+03,2.52e+02,-2.39e+03,4.63e+04
4708,4.40e+04,1.74e+03,4.35e+03,-7.71e+02,-3.27e+02,2.22e+03,4.12e+04
4709,2.30e+04,2.06e+03,1.85e+03,-3.95e+02,6.33e+01,-2.04e+03,2.14e+04
4710,3.38e+04,7.37e+02,1.19e+03,-2.93e+03,2.94e+03,9.87e+02,3.37e+04
4711,3.93e+04,-2.89e+02,2.33e+03,-3.96e+03,-8.80e+02,2.22e+03,3.91e+04
4712,1.57e+04,-1.07e+03,-1.28e+03,-3.87e+03,2.72e+02,-2.04e+03,1.85e+04
4713,1.53e+04,1.96e+03,3.13e+03,1.70e+03,-1.87e+02,1.49e+03,1.34e+04
4714,3.81e+04,1.19e+03,8.74e+03,1.78e+02,3.03e+02,-2.46e+03,3.41e+04
4715,2.80e+04,1.53e+03,3.94e+03,-1.21e+03,-3.73e+03,-1.32e+03,2.63e+04
4716,4.97e+03,-2.49e+03,-1.32e+03,-3.11e+03,-4.53e+02,1.49e+03,9.19e+03
4717,3.29e+04,-1.04e+03,6.51e+03,-4.71e+03,1.05e+03,-2.46e+03,3.23e+04
4718,3.62e+04,-3.82e+03,1.58e+04,5.29e+02,-3.06e+03,3.05e+03,3.54e+04
4719,1.00e+04,-3.54e+03,4.81e+03,1.46e+03,2.81e+03,-1.03e+02,1.30e+04
4720,1.84e+04,-1.12e+03,6.25e+03,-1.04e+03,4.81e+03,7.96e+02,1.91e+04
4721,1.99e+04,-1.08e+04,8.82e+03,-1.95e+04,-2.80e+03,3.05e+03,4.38e+04
4722,2.06e+03,-6.95e+03,1.41e+03,-5.31e+03,2.68e+03,-1.03e+02,1.35e+04
4723,-2.53e+03,-6.58e+04,-1.37e+04,-3.41e+03,-5.45e+03,-1.15e+03,5.95e+04
4724,1.54e+04,-9.39e+04,-1.00e+04,-2.39e+04,9.90e+03,-1.19e+04,1.11e+05
4725,5.70e+03,-3.43e+04,-1.18e+03,-1.15e+04,-3.84e+03,8.80e+03,4.53e+04
4726,-1.07e+05,-3.15e+04,-3.23e+04,-2.29e+04,-4.44e+03,4.00e+03,8.57e+04
4727,-2.49e+05,-7.84e+04,-8.59e+04,-5.22e+04,2.47e+04,-1.62e+03,1.94e+05
4728,-1.89e+05,-8.33e+03,-3.22e+04,-8.45e+03,1.05e+04,1.02e+04,1.73e+05
4729,-8.01e+04,-2.81e+03,-5.23e+03,-6.37e+03,3.54e+03,-6.31e+03,7.79e+04
4730,-1.28e+05,-2.08e+04,-2.52e+04,-1.90e+04,-1.01e+04,-5.54e+03,1.12e+05
4731,-1.77e+05,-3.12e+03,-2.70e+04,-1.67e+04,1.02e+04,1.02e+04,1.68e+05
4732,-9.68e+04,-9.99e+03,-1.24e+04,-2.52e+04,1.52e+03,-6.31e+03,9.68e+04
4733,-1.00e+05,-5.77e+02,-5.55e+03,-1.30e+03,2.62e+03,8.17e+03,9.84e+04
4734,-1.93e+05,-7.48e+03,-1.70e+04,-2.27e+03,9.85e+03,-8.40e+03,1.83e+05
4735,-1.53e+05,-1.03e+04,-2.37e+04,-1.33e+04,1.90e+04,3.51e+03,1.42e+05
4736,-9.87e+04,8.63e+01,-4.88e+03,-1.60e+04,1.58e+03,8.17e+03,1.01e+05
4737,-1.74e+05,7.79e+02,-8.77e+03,-1.46e+04,2.87e+03,-8.40e+03,1.73e+05
4738,-1.70e+05,-1.93e+03,-7.84e+03,2.07e+03,8.96e+02,7.53e+03,1.66e+05
4739,-1.02e+05,-2.95e+03,-4.53e+03,1.80e+03,1.53e+03,-7.53e+03,9.92e+04
4740,-1.36e+05,-1.63e+03,-6.25e+03,-6.20e+03,-8.05e+03,2.94e+02,1.34e+05
4741,-1.59e+05,2.78e+03,-3.14e+03,-1.29e+04,-2.36e+02,7.53e+03,1.61e+05
4742,-9.56e+04,-1.91e+02,-1.77e+03,-1.37e+04,1.31e+02,-7.53e+03,9.84e+04
4743,-9.53e+04,-1.89e+03,-2.63e+03,1.91e+03,-8.83e+01,6.88e+03,9.39e+04
4744,-1.59e+05,-2.09e+03,-4.85e+03,2.18e+03,4.93e+02,-7.07e+03,1.56e+05
4745,-1.27e+05,-6.57e+02,-3.24e+03,-5.81e+03,8.57e+03,-7.00e+02,1.27e+05
4746,-8.88e+04,8.86e+02,1.41e+02,-1.27e+04,-4.36e+02,6.88e+03,9.28e+04
4747,-1.48e+05,2.47e+03,-2.90e+02,-1.26e+04,-9.48e+02,-7.07e+03,1.51e+05
4748,-1.48e+05,-1.80e+03,-4.27e+03,2.04e+03,-9.08e+02,6.70e+03,1.45e+05
4749,-8.86e+04,-2.21e+03,-2.39e+03,1.74e+03,-3.84e+02,-6.51e+03,8.71e+04
4750,-1.19e+05,-1.96e+02,-2.33e+03,-5.36e+03,-8.48e+03,9.72e+02,1.19e+05
4751,-1.37e+05,2.68e+03,2.16e+02,-1.18e+04,-9.36e+02,6.70e+03,1.41e+05
4752,-8.22e+04,5.35e+02,3.47e+02,-1.23e+04,-4.00e+02,-6.51e+03,8.61e+04
4753,-8.21e+04,-1.89e+03,-2.01e+03,1.49e+03,-3.15e+02,6.07e+03,8.09e+04
4754,-1.36e+05,-1.80e+03,-3.25e+03,1.28e+03,-6.05e+02,-6.06e+03,1.34e+05
4755,-1.09e+05,-5.53e+02,-8.57e+02,-5.34e+03,6.60e+03,-8.74e+02,1.10e+05
4756,-7.56e+04,8.91e+02,7.73e+02,-1.13e+04,-4.06e+02,6.07e+03,7.96e+04
4757,-1.26e+05,2.58e+03,1.12e+03,-1.15e+04,-1.17e+03,-6.06e+03,1.30e+05
4758,-1.25e+05,-1.83e+03,-3.53e+03,1.14e+03,-9.98e+02,5.73e+03,1.23e+05
4759,-7.55e+04,-2.03e+03,-2.05e+03,7.42e+02,-4.86e+02,-5.43e+03,7.40e+04
4760,-1.01e+05,1.06e+02,-1.63e+03,-5.22e+03,-7.34e+03,1.11e+03,1.01e+05
4761,-1.15e+05,2.53e+03,8.40e+02,-1.06e+04,-9.11e+02,5.73e+03,1.19e+05
4762,-6.91e+04,7.08e+02,6.88e+02,-1.12e+04,-3.76e+02,-5.43e+03,7.30e+04
4763,-6.89e+04,-1.80e+03,-1.86e+03,5.54e+02,-2.84e+02,5.12e+03,6.76e+04
4764,-1.14e+05,-1.83e+03,-2.94e+03,2.23e+02,-7.31e+02,-5.04e+03,1.12e+05
4765,-9.17e+04,-6.11e+02,-4.44e+02,-5.27e+03,5.42e+03,-8.60e+02,9.21e+04
4766,-6.24e+04,9.56e+02,8.92e+02,-1.02e+04,-3.46e+02,5.12e+03,6.64e+04
4767,-1.04e+05,2.53e+03,1.42e+03,-1.05e+04,-1.13e+03,-5.04e+03,1.08e+05
4768,-1.03e+05,-1.88e+03,-3.24e+03,1.09e+02,-9.84e+02,4.70e+03,1.01e+05
4769,-6.23e+04,-1.90e+03,-1.93e+03,-3.24e+02,-4.60e+02,-4.42e+03,6.09e+04
4770,-8.33e+04,2.17e+02,-1.41e+03,-5.19e+03,-6.15e+03,1.12e+03,8.39e+04
4771,-9.33e+04,2.46e+03,1.09e+03,-9.57e+03,-9.11e+02,4.70e+03,9.68e+04
4772,-5.59e+04,8.41e+02,8.12e+02,-1.01e+04,-3.77e+02,-4.42e+03,5.99e+04
4773,-5.57e+04,-1.69e+03,-1.80e+03,-4.87e+02,-2.81e+02,4.10e+03,5.44e+04
4774,-9.24e+04,-1.89e+03,-2.83e+03,-8.51e+02,-7.94e+02,-4.03e+03,9.03e+04
4775,-7.42e+04,-5.99e+02,-2.71e+02,-5.26e+03,4.27e+03,-8.79e+02,7.47e+04
4776,-4.93e+04,1.07e+03,9.65e+02,-9.13e+03,-3.40e+02,4.10e+03,5.32e+04
4777,-8.22e+04,2.48e+03,1.54e+03,-9.45e+03,-1.14e+03,-4.03e+03,8.61e+04
4778,-8.15e+04,-1.93e+03,-3.13e+03,-1.00e+03,-1.02e+03,3.64e+03,7.92e+04
4779,-4.92e+04,-1.74e+03,-1.89e+03,-1.43e+03,-4.85e+02,-3.42e+03,4.78e+04
4780,-6.58e+04,3.01e+02,-1.32e+03,-5.22e+03,-5.03e+03,1.11e+03,6.65e+04
4781,-7.12e+04,2.48e+03,1.27e+03,-8.58e+03,-9.84e+02,3.64e+03,7.49e+04
4782,-4.28e+04,1.01e+03,8.66e+02,-9.11e+03,-4.46e+02,-3.42e+03,4.68e+04
4783,-4.25e+04,-1.52e+03,-1.84e+03,-1.67e+03,-3.37e+02,3.04e+03,4.12e+04
4784,-7.04e+04,-1.98e+03,-2.90e+03,-2.08e+03,-9.35e+02,-3.00e+03,6.83e+04
4785,-5.66e+04,-5.44e+02,-1.85e+02,-5.38e+03,3.02e+03,-9.30e+02,5.73e+04
4786,-3.59e+04,1.30e+03,9.83e+02,-8.26e+03,-3.94e+02,3.04e+03,4.01e+04
4787,-5.98e+04,2.56e+03,1.64e+03,-8.63e+03,-1.26e+03,-3.00e+03,6.39e+04
4788,-5.88e+04,-2.05e+03,-3.20e+03,-2.43e+03,-1.21e+03,2.46e+03,5.66e+04
4789,-3.60e+04,-1.48e+03,-1.95e+03,-2.87e+03,-6.10e+02,-2.31e+03,3.49e+04
4790,-4.79e+04,4.64e+02,-1.36e+03,-5.50e+03,-3.93e+03,1.12e+03,4.90e+04
4791,-4.76e+04,2.75e+03,1.60e+03,-7.88e+03,-1.20e+03,2.46e+03,5.19e+04
4792,-2.95e+04,1.32e+03,8.55e+02,-8.49e+03,-5.74e+02,-2.31e+03,3.42e+04
4793,-2.90e+04,-1.32e+03,-1.90e+03,-3.46e+03,-5.31e+02,1.81e+03,2.82e+04
4794,-4.69e+04,-2.23e+03,-2.97e+03,-3.91e+03,-1.16e+03,-1.79e+03,4.50e+04
4795,-3.81e+04,-4.46e+02,-5.86e+01,-5.98e+03,1.49e+03,-1.03e+03,3.94e+04
4796,-2.21e+04,1.61e+03,1.03e+03,-7.77e+03,-5.36e+02,1.81e+03,2.72e+04
4797,-3.49e+04,2.91e+03,2.17e+03,-8.05e+03,-1.28e+03,-1.79e+03,4.01e+04
4798,-3.36e+04,-2.61e+03,-2.75e+03,-4.52e+03,-1.50e+03,1.06e+03,3.20e+04
4799,-2.23e+04,-1.53e+03,-1.70e+03,-5.19e+03,-6.23e+02,-9.74e+02,2.26e+04
4800,-2.85e+04,5.65e+02,-1.10e+03,-6.33e+03,-2.53e+03,1.19e+03,3.07e+04
4801,-2.10e+04,2.78e+03,2.64e+03,-6.81e+03,-1.38e+03,1.06e+03,2.67e+04
4802,-1.54e+04,1.43e+03,1.26e+03,-7.66e+03,-4.11e+02,-9.74e+02,2.14e+04
4803,-1.45e+04,-2.28e+03,-1.14e+03,-5.70e+03,-8.16e+02,5.24e+02,1.63e+04
4804,-2.03e+04,-3.02e+03,-1.75e+03,-5.84e+03,-1.10e+03,-4.56e+02,2.07e+04
4805,-1.77e+04,-7.70e+02,8.35e+02,-6.55e+03,-2.15e+02,-1.15e+03,2.12e+04
4806,-7.61e+03,6.68e+02,1.80e+03,-5.36e+03,-6.93e+02,5.24e+02,1.29e+04
4807,-8.71e+03,1.95e+03,3.22e+03,-5.35e+03,-4.77e+02,-4.56e+02,1.47e+04
4808,-8.56e+03,-3.20e+03,-5.29e+01,-4.45e+03,-7.79e+02,2.40e+02,1.08e+04
4809,-7.48e+03,-3.60e+03,1.33e+02,-5.90e+03,-1.49e+02,-6.63e+01,1.22e+04
4810,-7.61e+03,-4.36e+02,9.76e+02,-5.23e+03,-6.75e+02,1.04e+03,1.23e+04
4811,-2.08e+03,-4.24e+02,2.72e+03,-1.50e+03,-4.65e+02,2.40e+02,5.04e+03
4812,-1.78e+03,-1.16e+03,2.57e+03,-1.31e+03,2.25e+02,-6.63e+01,4.69e+03
4813,-4.70e+02,-2.23e+03,2.72e+03,-1.60e+03,-4.00e+02,5.38e+02,5.29e+03
4814,-1.25e+03,-1.32e+03,1.82e+03,-1.57e+03,-3.04e+02,3.56e+02,4.21e+03
4815,-1.10e+03,-9.12e+02,3.01e+03,-1.45e+03,-1.90e+01,-4.00e+01,4.75e+03
4816,-1.06e+05,-2.95e+04,-3.14e+04,-1.80e+04,-4.44e+03,4.11e+03,8.27e+04
4817,-3.49e+04,-1.22e+04,-1.06e+04,-6.38e+03,4.66e+03,-2.10e+03,2.75e+04
4818,-2.69e+04,-9.07e+03,-4.97e+03,1.95e+03,1.75e+03,5.65e+03,2.29e+04
4819,-7.93e+04,-9.25e+02,-4.42e+03,3.16e+03,3.54e+03,-8.78e+03,7.86e+04
4820,-5.23e+04,-9.89e+03,-1.25e+04,-3.04e+03,1.02e+04,2.02e+03,4.53e+04
4821,-3.28e+04,-1.16e+04,-7.50e+03,-1.95e+04,1.87e+03,5.65e+03,4.24e+04
4822,-9.60e+04,-8.10e+03,-1.16e+04,-1.56e+04,1.52e+03,-8.78e+03,9.17e+04
4823,-1.00e+05,-1.13e+03,-5.79e+03,-4.78e+03,2.62e+03,7.57e+03,9.84e+04
4824,-3.38e+04,-4.10e+03,-2.70e+03,-6.71e+02,1.25e+03,-7.79e+03,3.34e+04
4825,-6.86e+04,-1.10e+04,-7.29e+03,-1.05e+04,-7.35e+03,-2.84e+03,6.37e+04
4826,-9.89e+04,-4.71e+02,-5.12e+03,-1.95e+04,1.58e+03,7.57e+03,1.03e+05
4827,-3.38e+04,-4.13e+03,-2.73e+03,-2.06e+04,1.40e+02,-7.79e+03,4.88e+04
4828,-3.35e+04,-1.59e+03,-1.41e+03,-3.94e+03,2.57e+02,6.94e+03,3.48e+04
4829,-1.02e+05,-1.82e+03,-4.04e+03,-4.26e+03,1.53e+03,-7.99e+03,9.99e+04
4830,-6.87e+04,-2.84e+03,-4.78e+03,-1.25e+04,9.93e+03,5.20e+01,7.06e+04
4831,-3.19e+04,-9.09e+02,-7.28e+02,-2.01e+04,5.38e+01,6.94e+03,4.81e+04
4832,-9.51e+04,9.35e+02,-1.29e+03,-1.98e+04,1.31e+02,-7.99e+03,1.02e+05
4833,-9.48e+04,-7.94e+02,-2.16e+03,-4.34e+03,-8.83e+01,6.75e+03,9.44e+04
4834,-3.18e+04,-1.34e+03,-1.11e+03,-4.34e+03,5.44e+01,-7.65e+03,3.42e+04
4835,-6.35e+04,-6.99e+02,-1.40e+03,-1.22e+04,-8.27e+03,-2.40e+02,6.75e+04
4836,-8.84e+04,1.98e+03,6.09e+02,-1.90e+04,-4.36e+02,6.75e+03,9.62e+04
4837,-2.98e+04,-4.49e+02,-2.18e+02,-1.95e+04,-1.22e+02,-7.65e+03,4.67e+04
4838,-2.98e+04,-1.20e+03,-8.73e+02,-4.56e+03,-1.03e+02,6.33e+03,3.18e+04
4839,-8.81e+04,-9.95e+02,-1.87e+03,-4.84e+03,-3.84e+02,-6.91e+03,8.79e+04
4840,-5.91e+04,-4.22e+02,-1.54e+02,-1.20e+04,7.36e+03,-8.49e+02,6.37e+04
4841,-2.76e+04,-2.72e+02,5.18e+01,-1.85e+04,-1.02e+02,6.33e+03,4.36e+04
4842,-8.17e+04,1.75e+03,8.66e+02,-1.89e+04,-4.00e+02,-6.91e+03,9.00e+04
4843,-8.17e+04,-8.86e+02,-1.58e+03,-4.86e+03,-3.15e+02,5.98e+03,8.16e+04
4844,-2.74e+04,-1.05e+03,-7.98e+02,-5.41e+03,-1.18e+02,-6.37e+03,3.02e+04
4845,-5.44e+04,2.40e+02,-7.09e+02,-1.19e+04,-7.27e+03,2.16e+02,5.93e+04
4846,-7.52e+04,1.90e+03,1.20e+03,-1.77e+04,-4.06e+02,5.98e+03,8.33e+04
4847,-2.53e+04,-1.40e+02,1.08e+02,-1.84e+04,-1.28e+02,-6.37e+03,4.22e+04
4848,-2.53e+04,-1.06e+03,-7.67e+02,-5.33e+03,-9.64e+01,5.51e+03,2.78e+04
4849,-7.50e+04,-9.93e+02,-1.60e+03,-5.91e+03,-4.86e+02,-5.75e+03,7.51e+04
4850,-5.05e+04,-6.24e+02,1.61e+02,-1.19e+04,6.18e+03,-6.76e+02,5.54e+04
4851,-2.32e+04,-1.45e+02,1.51e+02,-1.72e+04,-7.45e+01,5.51e+03,3.89e+04
4852,-6.86e+04,1.74e+03,1.13e+03,-1.78e+04,-3.76e+02,-5.75e+03,7.72e+04
4853,-6.85e+04,-9.53e+02,-1.50e+03,-5.79e+03,-2.84e+02,5.05e+03,6.86e+04
4854,-2.31e+04,-9.32e+02,-7.31e+02,-6.51e+03,-1.10e+02,-5.23e+03,2.65e+04
4855,-4.54e+04,5.07e+02,-5.35e+02,-1.19e+04,-6.10e+03,3.80e+02,5.10e+04
4856,-6.21e+04,1.80e+03,1.25e+03,-1.65e+04,-3.46e+02,5.05e+03,7.03e+04
4857,-2.09e+04,-2.25e+01,1.79e+02,-1.74e+04,-1.13e+02,-5.23e+03,3.78e+04
4858,-2.09e+04,-9.32e+02,-7.15e+02,-6.34e+03,-7.97e+01,4.55e+03,2.42e+04
4859,-6.20e+04,-1.04e+03,-1.56e+03,-7.00e+03,-4.60e+02,-4.67e+03,6.24e+04
4860,-4.19e+04,-7.08e+02,1.55e+02,-1.18e+04,5.08e+03,-5.88e+02,4.72e+04
4861,-1.88e+04,-1.91e+01,1.97e+02,-1.61e+04,-6.46e+01,4.55e+03,3.46e+04
4862,-5.56e+04,1.70e+03,1.18e+03,-1.68e+04,-3.77e+02,-4.67e+03,6.45e+04
4863,-5.54e+04,-9.74e+02,-1.49e+03,-6.86e+03,-2.81e+02,4.04e+03,5.59e+04
4864,-1.87e+04,-7.79e+02,-7.01e+02,-7.62e+03,-1.22e+02,-4.16e+03,2.34e+04
4865,-3.67e+04,6.28e+02,-4.83e+02,-1.19e+04,-4.98e+03,4.24e+02,4.30e+04
4866,-4.90e+04,1.79e+03,1.27e+03,-1.55e+04,-3.40e+02,4.04e+03,5.76e+04
4867,-1.66e+04,1.16e+02,1.93e+02,-1.63e+04,-1.35e+02,-4.16e+03,3.36e+04
4868,-1.65e+04,-6.85e+02,-7.06e+02,-7.47e+03,-8.11e+01,3.53e+03,2.13e+04
4869,-4.89e+04,-9.60e+02,-1.56e+03,-8.18e+03,-4.85e+02,-3.63e+03,5.01e+04
4870,-3.32e+04,-6.30e+02,1.52e+02,-1.19e+04,3.93e+03,-5.53e+02,3.94e+04
4871,-1.45e+04,2.01e+02,1.80e+02,-1.51e+04,-7.75e+01,3.53e+03,3.06e+04
4872,-4.24e+04,1.80e+03,1.20e+03,-1.59e+04,-4.46e+02,-3.63e+03,5.22e+04
4873,-4.22e+04,-7.74e+02,-1.52e+03,-8.14e+03,-3.37e+02,2.97e+03,4.37e+04
4874,-1.45e+04,-3.80e+02,-7.25e+02,-8.91e+03,-2.15e+02,-3.09e+03,2.15e+04
4875,-2.79e+04,9.09e+02,-4.99e+02,-1.20e+04,-3.87e+03,4.14e+02,3.57e+04
4876,-3.56e+04,2.04e+03,1.30e+03,-1.47e+04,-3.94e+02,2.97e+03,4.55e+04
4877,-1.27e+04,4.11e+02,6.56e+01,-1.55e+04,-2.23e+02,-3.09e+03,3.03e+04
4878,-1.25e+04,-8.38e+01,-7.55e+02,-8.96e+03,-1.55e+02,2.45e+03,2.01e+04
4879,-3.56e+04,-5.71e+02,-1.56e+03,-9.77e+03,-6.10e+02,-2.54e+03,3.87e+04
4880,-2.45e+04,-2.72e+02,1.24e+02,-1.23e+04,2.63e+03,-5.19e+02,3.28e+04
4881,-1.07e+04,6.59e+02,-1.24e+01,-1.45e+04,-1.47e+02,2.45e+03,2.78e+04
4882,-2.91e+04,2.24e+03,1.25e+03,-1.54e+04,-5.74e+02,-2.54e+03,4.10e+04
4883,-2.86e+04,-4.61e+02,-1.54e+03,-1.00e+04,-5.31e+02,1.72e+03,3.27e+04
4884,-1.11e+04,2.82e+02,-7.39e+02,-1.09e+04,-3.60e+02,-1.90e+03,2.21e+04
4885,-1.94e+04,1.51e+03,-5.75e+02,-1.27e+04,-2.70e+03,3.81e+02,3.00e+04
4886,-2.18e+04,2.47e+03,1.39e+03,-1.43e+04,-5.36e+02,1.72e+03,3.44e+04
4887,-9.91e+03,8.00e+02,-2.21e+02,-1.54e+04,-2.64e+02,-1.90e+03,2.88e+04
4888,-9.14e+03,-2.61e+01,-7.07e+02,-1.13e+04,-5.12e+02,1.17e+03,2.16e+04
4889,-2.21e+04,-1.16e+03,-1.54e+03,-1.21e+04,-6.23e+02,-1.29e+03,2.96e+04
4890,-1.64e+04,-3.12e+02,1.83e+01,-1.34e+04,1.08e+03,-6.28e+02,2.84e+04
4891,-7.84e+03,5.33e+02,-1.48e+02,-1.44e+04,-4.41e+02,1.17e+03,2.63e+04
4892,-1.52e+04,1.79e+03,1.41e+03,-1.45e+04,-4.11e+02,-1.29e+03,3.04e+04
4893,-1.51e+04,-3.66e+03,-1.74e+03,-1.18e+04,-8.16e+02,4.66e+02,2.39e+04
4894,-7.56e+03,-2.38e+03,-4.03e+02,-1.33e+04,2.30e+02,-5.65e+02,2.40e+04
4895,-1.11e+04,-1.48e+02,-7.56e+02,-1.35e+04,-1.29e+03,7.62e+02,2.59e+04
4896,-8.20e+03,-7.15e+02,1.21e+03,-1.14e+04,-6.93e+02,4.66e+02,2.16e+04
4897,-5.24e+03,-1.39e+03,5.91e+02,-1.37e+04,4.67e+02,-5.65e+02,2.43e+04
4898,-3.78e+03,-6.92e+03,1.87e+01,-1.18e+04,-1.02e+03,2.43e+02,2.13e+04
4899,-9.63e+03,-8.63e+03,-2.02e+03,-1.11e+04,-1.49e+02,-9.88e+01,2.06e+04
4900,-7.36e+03,-5.05e+03,2.62e+02,-1.22e+04,2.54e+02,-1.15e+03,2.23e+04
4901,-6.15e+02,-5.57e+03,1.37e+03,-6.86e+03,-1.01e+03,2.43e+02,1.35e+04
4902,-3.94e+03,-6.19e+03,4.15e+02,-6.55e+03,2.25e+02,-9.88e+01,1.28e+04
4903,-3.84e+03,-1.01e+04,-6.49e+02,-5.22e+03,-4.00e+02,6.71e+02,1.24e+04
4904,1.74e+03,-1.11e+04,2.55e+03,-6.99e+03,1.21e+03,-3.87e+01,1.81e+04
4905,-1.13e+03,-7.80e+03,4.75e+02,-6.30e+03,-8.80e+02,9.67e+02,1.35e+04
4906,3.39e+04,1.05e+04,1.01e+04,-8.76e+03,9.17e+02,1.94e+03,2.83e+04
4907,-3.41e+04,-1.02e+04,-9.70e+03,-8.40e+03,4.66e+03,-2.85e+03,2.97e+04
4908,-2.22e+04,1.90e+03,-2.64e+02,5.61e+03,1.75e+03,5.51e+03,2.70e+04
4909,2.35e+04,-1.93e+03,-2.21e+02,6.44e+03,-1.80e+03,-6.04e+03,2.91e+04
4910,3.07e+03,-9.88e+02,3.05e+03,7.50e+02,-6.30e+03,-1.99e+02,1.17e+04
4911,-2.81e+04,-6.38e+02,-2.80e+03,-1.58e+04,1.87e+03,5.51e+03,3.94e+04
4912,2.93e+04,5.54e+02,2.27e+03,-1.58e+04,-8.94e+02,-6.04e+03,4.05e+04
4913,3.02e+04,-1.85e+03,1.94e+02,-1.97e+03,-1.10e+03,6.78e+03,3.34e+04
4914,-3.16e+04,1.05e+03,-4.93e+02,-1.03e+03,1.25e+03,-8.07e+03,3.49e+04
4915,-1.85e+03,1.35e+02,-2.81e+03,-8.89e+03,8.39e+03,-3.41e+02,2.13e+04
4916,3.10e+04,-1.52e+03,5.26e+02,-2.10e+04,-7.97e+02,6.78e+03,4.96e+04
4917,-3.16e+04,1.03e+03,-5.18e+02,-2.09e+04,1.40e+02,-8.07e+03,5.03e+04
4918,-3.25e+04,6.76e+02,-4.38e+02,-5.67e+03,2.57e+02,6.83e+03,3.61e+04
4919,3.30e+04,-4.78e+02,7.25e+02,-5.16e+03,-4.64e+02,-8.28e+03,3.70e+04
4920,4.22e+02,-3.49e+02,8.92e+02,-1.35e+04,-8.76e+03,-6.83e+02,2.79e+04
4921,-3.09e+04,1.36e+03,2.43e+02,-2.18e+04,5.38e+01,6.83e+03,5.07e+04
4922,3.11e+04,-1.30e+03,-9.99e+01,-2.18e+04,4.56e+01,-8.28e+03,5.14e+04
4923,3.13e+04,-2.37e+02,4.01e+02,-6.39e+03,8.41e+01,6.55e+03,3.50e+04
4924,-3.12e+04,1.16e+02,-4.85e+02,-6.41e+03,5.44e+01,-7.74e+03,3.56e+04
4925,2.48e+01,6.32e+01,1.36e+02,-1.42e+04,8.22e+03,-6.84e+02,2.85e+04
4926,2.92e+04,-1.15e+03,-5.13e+02,-2.13e+04,1.38e+02,6.55e+03,4.88e+04
4927,-2.91e+04,1.01e+03,4.05e+02,-2.16e+04,-1.22e+02,-7.74e+03,4.97e+04
4928,-2.92e+04,1.57e+02,-2.93e+02,-6.67e+03,-1.03e+02,6.26e+03,3.32e+04
4929,2.91e+04,-1.38e+02,3.40e+02,-7.03e+03,1.14e+02,-7.09e+03,3.37e+04
4930,9.55e+01,1.30e+02,-4.12e+02,-1.42e+04,-7.55e+03,-5.38e+02,2.78e+04
4931,-2.70e+04,1.08e+03,6.32e+02,-2.06e+04,-1.02e+02,6.26e+03,4.65e+04
4932,2.70e+04,-1.03e+03,-5.49e+02,-2.11e+04,1.57e+02,-7.09e+03,4.76e+04
4933,2.70e+04,-9.10e+01,2.95e+02,-7.02e+03,1.20e+02,5.89e+03,3.13e+04
4934,-2.70e+04,6.17e+01,-3.24e+02,-7.61e+03,-1.18e+02,-6.45e+03,3.19e+04
4935,-3.12e+02,-4.03e+02,4.03e+02,-1.41e+04,7.00e+03,-3.68e+02,2.73e+04
4936,2.49e+04,-1.02e+03,-6.30e+02,-1.99e+04,9.77e+01,5.89e+03,4.42e+04
4937,-2.49e+04,9.68e+02,5.83e+02,-2.06e+04,-1.28e+02,-6.45e+03,4.54e+04
4938,-2.48e+04,3.62e+01,-2.96e+02,-7.46e+03,-9.64e+01,5.46e+03,2.95e+04
4939,2.48e+04,-2.87e+01,3.29e+02,-8.18e+03,1.26e+02,-5.85e+03,3.02e+04
4940,4.50e+02,5.56e+02,-3.42e+02,-1.41e+04,-6.42e+03,-2.50e+02,2.68e+04
4941,-2.27e+04,9.55e+02,6.23e+02,-1.93e+04,-7.45e+01,5.46e+03,4.20e+04
4942,2.27e+04,-9.31e+02,-5.73e+02,-2.01e+04,1.25e+02,-5.85e+03,4.32e+04
4943,2.27e+04,3.83e+00,3.15e+02,-7.95e+03,9.88e+01,4.99e+03,2.78e+04
4944,-2.27e+04,-2.24e+01,-3.41e+02,-8.73e+03,-1.10e+02,-5.29e+03,2.86e+04
4945,-5.13e+02,-6.54e+02,3.03e+02,-1.41e+04,5.87e+03,-1.79e+02,2.64e+04
4946,2.06e+04,-9.09e+02,-5.98e+02,-1.88e+04,7.64e+01,4.99e+03,3.98e+04
4947,-2.05e+04,8.87e+02,5.69e+02,-1.96e+04,-1.13e+02,-5.29e+03,4.11e+04
4948,-2.05e+04,-3.10e+01,-3.29e+02,-8.48e+03,-7.97e+01,4.51e+03,2.63e+04
4949,2.05e+04,8.84e+01,3.51e+02,-9.28e+03,1.09e+02,-4.75e+03,2.72e+04
4950,5.71e+02,7.09e+02,-2.72e+02,-1.41e+04,-5.30e+03,-1.41e+02,2.60e+04
4951,-1.84e+04,8.82e+02,5.83e+02,-1.82e+04,-6.46e+01,4.51e+03,3.77e+04
4952,1.84e+04,-8.22e+02,-5.59e+02,-1.90e+04,1.04e+02,-4.75e+03,3.90e+04
4953,1.84e+04,1.74e+02,3.34e+02,-9.00e+03,9.30e+01,4.01e+03,2.49e+04
4954,-1.84e+04,-2.32e+01,-3.78e+02,-9.84e+03,-1.22e+02,-4.21e+03,2.59e+04
4955,-5.58e+02,-6.62e+02,2.61e+02,-1.40e+04,4.75e+03,-1.07e+02,2.57e+04
4956,1.62e+04,-7.45e+02,-5.85e+02,-1.76e+04,6.99e+01,4.01e+03,3.56e+04
4957,-1.63e+04,8.71e+02,5.17e+02,-1.85e+04,-1.35e+02,-4.21e+03,3.70e+04
4958,-1.62e+04,8.32e+01,-3.76e+02,-9.56e+03,-8.11e+01,3.49e+03,2.38e+04
4959,1.61e+04,3.89e+02,3.51e+02,-1.04e+04,5.44e+01,-3.69e+03,2.47e+04
4960,5.84e+02,9.13e+02,-2.55e+02,-1.40e+04,-4.21e+03,-1.28e+02,2.54e+04
4961,-1.41e+04,9.69e+02,5.10e+02,-1.72e+04,-7.75e+01,3.49e+03,3.38e+04
4962,1.39e+04,-5.74e+02,-6.12e+02,-1.79e+04,4.11e+01,-3.69e+03,3.48e+04
4963,1.39e+04,6.81e+02,3.25e+02,-1.01e+04,5.73e+01,3.02e+03,2.26e+04
4964,-1.42e+04,3.36e+02,-4.18e+02,-1.10e+04,-2.15e+02,-3.18e+03,2.43e+04
4965,-6.85e+02,-3.45e+02,2.24e+02,-1.41e+04,3.58e+03,-4.49e+01,2.52e+04
4966,1.16e+04,-3.16e+02,-6.73e+02,-1.65e+04,3.43e+01,3.02e+03,3.14e+04
4967,-1.24e+04,1.13e+03,3.73e+02,-1.76e+04,-2.23e+02,-3.18e+03,3.36e+04
4968,-1.21e+04,7.25e+02,-4.08e+02,-1.07e+04,-1.55e+02,2.37e+03,2.26e+04
4969,1.12e+04,1.22e+03,3.54e+02,-1.15e+04,-1.16e+02,-2.68e+03,2.30e+04
4970,3.11e+02,1.61e+03,-2.48e+02,-1.41e+04,-3.17e+03,-2.15e+02,2.50e+04
4971,-1.04e+04,1.47e+03,3.34e+02,-1.62e+04,-1.47e+02,2.37e+03,3.06e+04
4972,8.43e+03,7.11e+00,-8.55e+02,-1.69e+04,-7.61e+01,-2.68e+03,3.09e+04
4973,8.70e+03,1.64e+03,3.30e+02,-1.13e+04,-1.05e+02,2.01e+03,2.13e+04
4974,-1.07e+04,1.17e+03,-3.58e+02,-1.22e+04,-3.60e+02,-2.16e+03,2.42e+04
4975,-1.58e+03,4.31e+02,1.51e+02,-1.42e+04,2.29e+03,9.93e+00,2.50e+04
4976,5.50e+03,2.66e+02,-1.04e+03,-1.57e+04,-8.18e+01,2.01e+03,2.80e+04
4977,-9.52e+03,1.69e+03,1.60e+02,-1.68e+04,-2.64e+02,-2.16e+03,3.11e+04
4978,-8.77e+03,8.27e+02,-3.41e+02,-1.20e+04,-5.12e+02,1.04e+03,2.28e+04
4979,4.57e+03,1.38e+03,4.18e+02,-1.33e+04,-1.63e+02,-1.68e+03,2.35e+04
4980,-1.26e+03,2.32e+03,-3.46e+02,-1.44e+04,-2.08e+03,-2.91e+02,2.53e+04
4981,-7.47e+03,1.39e+03,2.18e+02,-1.51e+04,-4.41e+02,1.04e+03,2.76e+04
4982,2.99e+02,-4.46e+02,-1.41e+03,-1.73e+04,9.29e+01,-1.68e+03,3.01e+04
4983,1.46e+03,-1.34e+03,1.82e+02,-1.36e+04,-8.61e+02,4.23e+02,2.38e+04
4984,-7.85e+03,-3.07e+03,-6.98e+02,-1.43e+04,2.30e+02,-1.02e+03,2.56e+04
4985,-4.91e+03,-2.04e+03,-5.12e+02,-1.53e+04,7.98e+02,-6.70e+02,2.68e+04
4986,-2.65e+03,-3.10e+03,-1.58e+03,-1.66e+04,-7.95e+02,4.23e+02,2.88e+04
4987,-5.53e+03,-2.07e+03,2.97e+02,-1.47e+04,4.67e+02,-1.02e+03,2.60e+04
4988,-6.15e+03,-1.25e+04,-2.36e+03,-1.32e+04,-1.02e+03,1.36e+02,2.46e+04
4989,-6.62e+02,-1.16e+04,4.89e+00,-1.61e+04,2.13e+03,-2.70e+02,3.02e+04
4990,-4.14e+03,-7.01e+03,-1.98e+03,-1.52e+04,-3.84e+02,1.24e+03,2.67e+04
4991,-2.99e+03,-1.11e+04,-1.00e+03,-8.30e+03,-1.01e+03,1.36e+02,1.72e+04
4992,-2.92e+02,-1.15e+04,1.63e+02,-1.35e+04,1.71e+03,-2.70e+02,2.61e+04
4993,3.40e+03,-2.77e+04,-1.68e+03,-1.12e+04,-2.44e+03,5.53e+02,3.50e+04
4994,-5.67e+03,-2.84e+04,-4.86e+03,-8.45e+03,1.21e+03,-4.76e+02,2.75e+04
4995,-2.92e+03,-2.06e+04,-2.04e+03,-1.07e+04,9.03e+02,-2.71e+03,2.64e+04
4996,3.47e+04,1.22e+04,1.08e+04,-6.98e+03,9.17e+02,1.84e+03,2.64e+04
4997,1.09e+05,2.95e+04,3.19e+04,-1.80e+04,-1.59e+04,-4.88e+03,8.87e+04
4998,7.68e+04,2.59e+02,5.58e+03,1.60e+03,-7.16e+03,7.55e+03,7.63e+04
4999,2.76e+04,7.76e+03,3.93e+03,2.42e+03,-1.80e+03,-5.39e+03,2.45e+04
5000,4.69e+04,1.14e+04,6.10e+03,-3.02e+03,2.90e+03,-2.49e+03,3.94e+04
5001,9.36e+04,7.42e+03,1.27e+04,-1.60e+04,-6.84e+03,7.55e+03,8.98e+04
5002,3.34e+04,1.02e+04,6.42e+03,-1.98e+04,-8.94e+02,-5.39e+03,4.37e+04
5003,3.26e+04,3.71e+03,2.58e+03,-1.69e+03,-1.10e+03,6.99e+03,3.20e+04
5004,1.05e+05,2.84e+03,6.58e+03,-3.56e+03,-4.50e+03,-8.99e+03,1.02e+05
5005,7.27e+04,9.85e+03,1.26e+04,-1.13e+04,-1.28e+04,2.10e+03,6.83e+04
5006,3.33e+04,4.04e+03,2.91e+03,-2.07e+04,-7.97e+02,6.99e+03,4.83e+04
5007,1.01e+05,9.81e+02,4.72e+03,-1.95e+04,-1.25e+03,-8.99e+03,1.05e+05
5008,1.00e+05,8.41e+02,3.26e+03,-4.67e+03,-6.38e+02,6.88e+03,9.92e+04
5009,3.39e+04,1.70e+03,1.66e+03,-3.27e+03,-4.64e+02,-8.21e+03,3.57e+04
5010,6.80e+04,3.36e+03,3.02e+03,-1.21e+04,8.23e+03,-1.16e+03,6.96e+04
5011,9.46e+04,-1.58e+03,8.47e+02,-1.95e+04,1.70e+02,6.88e+03,1.01e+05
5012,3.20e+04,8.74e+02,8.33e+02,-1.99e+04,4.56e+01,-8.21e+03,4.86e+04
5013,3.20e+04,1.36e+03,1.09e+03,-4.34e+03,8.41e+01,6.62e+03,3.37e+04
5014,9.46e+04,1.04e+03,2.40e+03,-4.27e+03,9.11e+00,-7.55e+03,9.40e+04
5015,6.34e+04,4.00e+02,1.09e+03,-1.21e+04,-8.16e+03,-8.93e+02,6.76e+04
5016,2.99e+04,4.51e+02,1.74e+02,-1.92e+04,1.38e+02,6.62e+03,4.60e+04
5017,8.82e+04,-1.67e+03,-3.03e+02,-1.93e+04,3.54e+02,-7.55e+03,9.62e+04
5018,8.84e+04,8.54e+02,1.75e+03,-4.54e+03,3.20e+02,6.39e+03,8.81e+04
5019,2.96e+04,1.11e+03,8.74e+02,-4.87e+03,1.14e+02,-7.01e+03,3.22e+04
5020,5.90e+04,1.05e+02,9.61e+02,-1.21e+04,7.87e+03,2.18e+01,6.36e+04
5021,8.18e+04,-1.96e+03,-1.06e+03,-1.83e+04,4.63e+02,6.39e+03,8.98e+04
5022,2.75e+04,2.21e+02,-1.39e+01,-1.90e+04,1.57e+02,-7.01e+03,4.45e+04
5023,2.76e+04,1.12e+03,8.16e+02,-4.90e+03,1.20e+02,5.95e+03,2.98e+04
5024,8.15e+04,9.63e+02,1.67e+03,-5.37e+03,4.92e+02,-6.31e+03,8.15e+04
5025,5.48e+04,5.12e+02,-1.07e+02,-1.19e+04,-6.72e+03,-7.57e+02,5.96e+04
5026,2.54e+04,1.99e+02,-1.09e+02,-1.78e+04,9.77e+01,5.95e+03,4.12e+04
5027,7.51e+04,-1.77e+03,-1.06e+03,-1.84e+04,3.99e+02,-6.31e+03,8.36e+04
5028,7.51e+04,9.15e+02,1.53e+03,-5.31e+03,3.06e+02,5.52e+03,7.50e+04
5029,2.53e+04,9.76e+02,7.59e+02,-5.97e+03,1.26e+02,-5.78e+03,2.83e+04
5030,4.99e+04,-4.22e+02,5.98e+02,-1.19e+04,6.69e+03,3.24e+02,5.51e+04
5031,6.86e+04,-1.85e+03,-1.24e+03,-1.71e+04,3.74e+02,5.52e+03,7.68e+04
5032,2.32e+04,7.44e+01,-1.43e+02,-1.79e+04,1.25e+02,-5.78e+03,4.00e+04
5033,2.31e+04,9.96e+02,7.40e+02,-5.83e+03,9.88e+01,5.04e+03,2.59e+04
5034,6.85e+04,1.02e+03,1.58e+03,-6.47e+03,4.78e+02,-5.20e+03,6.87e+04
5035,4.62e+04,6.81e+02,-1.53e+02,-1.18e+04,-5.62e+03,-6.18e+02,5.13e+04
5036,2.10e+04,8.31e+01,-1.73e+02,-1.67e+04,7.64e+01,5.04e+03,3.67e+04
5037,6.21e+04,-1.72e+03,-1.16e+03,-1.73e+04,3.70e+02,-5.20e+03,7.08e+04
5038,6.19e+04,1.01e+03,1.48e+03,-6.31e+03,2.89e+02,4.55e+03,6.22e+04
5039,2.09e+04,8.93e+02,6.96e+02,-7.07e+03,1.09e+02,-4.69e+03,2.49e+04
5040,4.11e+04,-5.56e+02,4.96e+02,-1.19e+04,5.54e+03,4.14e+02,4.69e+04
5041,5.55e+04,-1.74e+03,-1.26e+03,-1.60e+04,3.39e+02,4.55e+03,6.39e+04
5042,1.87e+04,-1.70e+01,-2.14e+02,-1.68e+04,1.04e+02,-4.69e+03,3.57e+04
5043,1.87e+04,9.39e+02,6.61e+02,-6.88e+03,9.30e+01,4.05e+03,2.26e+04
5044,5.55e+04,1.16e+03,1.52e+03,-7.52e+03,4.38e+02,-4.15e+03,5.61e+04
5045,3.75e+04,7.56e+02,-1.69e+02,-1.18e+04,-4.52e+03,-5.75e+02,4.32e+04
5046,1.65e+04,1.99e+01,-2.58e+02,-1.55e+04,6.99e+01,4.05e+03,3.24e+04
5047,4.91e+04,-1.58e+03,-1.22e+03,-1.61e+04,3.35e+02,-4.15e+03,5.81e+04
5048,4.90e+04,1.24e+03,1.42e+03,-7.28e+03,2.65e+02,3.55e+03,4.97e+04
5049,1.64e+04,9.54e+02,5.93e+02,-8.09e+03,5.44e+01,-3.67e+03,2.19e+04
5050,3.23e+04,-4.94e+02,4.07e+02,-1.18e+04,4.40e+03,4.48e+02,3.90e+04
5051,4.26e+04,-1.46e+03,-1.29e+03,-1.47e+04,2.91e+02,3.55e+03,5.12e+04
5052,1.41e+04,-8.65e+00,-3.70e+02,-1.56e+04,4.11e+01,-3.67e+03,3.13e+04
5053,1.41e+04,1.16e+03,5.30e+02,-7.76e+03,5.73e+01,3.02e+03,1.96e+04
5054,4.25e+04,1.56e+03,1.44e+03,-8.38e+03,3.18e+02,-3.16e+03,4.38e+04
5055,2.88e+04,1.02e+03,-2.13e+02,-1.16e+04,-3.51e+03,-6.02e+02,3.54e+04
5056,1.18e+04,1.62e+02,-4.68e+02,-1.42e+04,3.43e+01,3.02e+03,2.78e+04
5057,3.61e+04,-1.16e+03,-1.29e+03,-1.47e+04,2.24e+02,-3.16e+03,4.55e+04
5058,3.62e+04,1.87e+03,1.36e+03,-7.87e+03,1.38e+02,2.61e+03,3.75e+04
5059,1.14e+04,1.51e+03,4.80e+02,-8.73e+03,-1.16e+02,-2.79e+03,1.90e+04
5060,2.35e+04,-4.89e+01,2.68e+02,-1.14e+04,3.27e+03,4.73e+02,3.11e+04
5061,3.01e+04,-7.74e+02,-1.28e+03,-1.30e+04,1.73e+02,2.61e+03,3.86e+04
5062,8.55e+03,3.00e+02,-7.29e+02,-1.41e+04,-7.61e+01,-2.79e+03,2.64e+04
5063,8.86e+03,2.02e+03,4.94e+02,-7.94e+03,-1.05e+02,1.94e+03,1.61e+04
5064,2.95e+04,2.44e+03,1.58e+03,-8.69e+03,8.96e+01,-2.41e+03,3.16e+04
5065,1.99e+04,1.97e+03,-1.47e+02,-1.09e+04,-2.74e+03,-7.88e+02,2.72e+04
5066,5.66e+03,6.49e+02,-8.78e+02,-1.23e+04,-8.18e+01,1.94e+03,2.24e+04
5067,2.29e+04,-3.76e+02,-1.24e+03,-1.29e+04,2.41e+02,-2.41e+03,3.28e+04
5068,2.30e+04,2.28e+03,1.77e+03,-8.01e+03,-3.98e+01,1.85e+03,2.54e+04
5069,4.97e+03,2.32e+03,8.22e+02,-8.60e+03,-1.63e+02,-2.08e+03,1.58e+04
5070,1.38e+04,7.85e+02,4.73e+02,-1.05e+04,2.34e+03,4.61e+02,2.28e+04
5071,1.57e+04,-8.49e+02,-1.36e+03,-1.15e+04,1.69e+02,1.85e+03,2.63e+04
5072,7.02e+02,4.95e+02,-1.01e+03,-1.26e+04,9.29e+01,-2.08e+03,2.21e+04
5073,2.29e+03,5.99e+02,1.01e+03,-7.91e+03,-8.61e+02,3.64e+02,1.39e+04
5074,1.39e+04,-1.25e+02,2.34e+03,-1.02e+04,5.70e+02,-2.14e+03,2.22e+04
5075,8.84e+03,2.22e+03,7.90e+01,-1.03e+04,-1.89e+03,-9.62e+02,1.98e+04
5076,-1.82e+03,-1.16e+03,-7.53e+02,-1.09e+04,-7.95e+02,3.64e+02,1.89e+04
5077,3.84e+03,-4.42e+03,-1.95e+03,-1.56e+04,9.52e+02,-2.14e+03,2.83e+04
5078,7.00e+03,-1.03e+04,1.60e+03,-1.17e+04,-2.22e+03,-2.65e+02,2.58e+04
5079,-1.50e+03,-1.36e+04,-8.37e+02,-1.14e+04,2.13e+03,-6.88e+02,2.36e+04
5080,-1.35e+03,-8.81e+03,-1.05e+03,-1.28e+04,1.01e+03,-1.88e+03,2.38e+04
5081,-9.35e+02,-1.37e+04,-1.80e+03,-1.85e+04,-2.36e+03,-2.65e+02,3.46e+04
5082,-1.13e+03,-1.34e+04,-6.79e+02,-8.81e+03,1.71e+03,-6.88e+02,2.00e+04
5083,-6.13e+03,-4.99e+04,-1.12e+04,-9.09e+03,-2.44e+03,4.09e+02,4.46e+04
5084,4.27e+03,-5.36e+04,-3.92e+03,-1.81e+04,7.59e+03,-1.04e+03,6.41e+04
5085,-3.95e+03,-3.28e+04,-7.11e+03,-1.35e+04,-2.19e+02,5.61e+03,3.74e+04
5086,2.49e+05,7.99e+04,8.58e+04,-5.37e+04,4.65e+03,2.70e+03,1.90e+05
5087,1.09e+05,3.16e+04,3.28e+04,-2.23e+04,-1.59e+04,-2.14e+03,9.07e+04
5088,7.79e+04,2.66e+03,6.61e+03,-6.48e+03,-7.16e+03,7.91e+03,7.64e+04
5089,1.93e+05,9.43e+03,2.66e+04,-5.82e+03,-1.01e+04,-1.14e+04,1.78e+05
5090,1.34e+05,1.95e+04,3.36e+04,-1.95e+04,-2.54e+04,6.66e+03,1.22e+05
5091,9.46e+04,9.82e+03,1.38e+04,-2.40e+04,-6.84e+03,7.91e+03,9.45e+04
5092,1.81e+05,4.36e+03,2.16e+04,-1.58e+04,-3.02e+03,-1.14e+04,1.72e+05
5093,1.86e+05,4.70e+03,1.73e+04,-2.86e+03,-3.08e+03,7.28e+03,1.76e+05
5094,1.05e+05,2.71e+03,6.52e+03,5.49e+02,-4.50e+03,-7.99e+03,1.02e+05
5095,1.49e+05,1.14e+04,1.77e+04,-1.05e+04,7.85e+03,-3.22e+03,1.37e+05
5096,1.70e+05,-2.19e+03,1.04e+04,-1.42e+04,-1.30e+03,7.28e+03,1.69e+05
5097,1.01e+05,8.53e+02,4.66e+03,-1.54e+04,-1.25e+03,-7.99e+03,1.03e+05
5098,1.01e+05,1.71e+03,3.64e+03,9.90e+02,-6.38e+02,7.14e+03,9.87e+04
5099,1.71e+05,2.89e+03,7.85e+03,2.36e+03,-2.96e+03,-7.73e+03,1.67e+05
5100,1.37e+05,5.90e+02,7.62e+03,-7.03e+03,-1.13e+04,-4.61e+02,1.35e+05
5101,9.49e+04,-7.03e+02,1.22e+03,-1.39e+04,1.70e+02,7.14e+03,9.85e+04
5102,1.60e+05,-2.04e+03,2.92e+03,-1.32e+04,1.11e+02,-7.73e+03,1.62e+05
5103,1.59e+05,1.85e+03,5.42e+03,2.23e+03,5.06e+02,7.13e+03,1.56e+05
5104,9.51e+04,2.34e+03,2.96e+03,2.11e+03,9.11e+00,-7.08e+03,9.33e+04
5105,1.28e+05,8.70e+02,3.57e+03,-5.62e+03,8.81e+03,6.53e+02,1.27e+05
5106,1.48e+05,-2.77e+03,7.96e+02,-1.23e+04,8.03e+02,7.13e+03,1.51e+05
5107,8.88e+04,-3.69e+02,2.53e+02,-1.29e+04,3.54e+02,-7.08e+03,9.25e+04
5108,8.88e+04,1.93e+03,2.22e+03,1.81e+03,3.20e+02,6.51e+03,8.75e+04
5109,1.47e+05,1.85e+03,3.72e+03,1.79e+03,3.01e+02,-6.57e+03,1.45e+05
5110,1.18e+05,4.99e+02,1.58e+03,-5.46e+03,-7.36e+03,-8.52e+02,1.18e+05
5111,8.23e+04,-8.82e+02,-5.98e+02,-1.20e+04,4.63e+02,6.51e+03,8.63e+04
5112,1.37e+05,-2.58e+03,-7.09e+02,-1.21e+04,1.13e+03,-6.57e+03,1.41e+05
5113,1.36e+05,1.82e+03,3.79e+03,1.61e+03,9.85e+02,6.23e+03,1.34e+05
5114,8.20e+04,2.10e+03,2.16e+03,1.25e+03,4.92e+02,-5.95e+03,8.06e+04
5115,1.10e+05,-4.70e+00,1.84e+03,-5.28e+03,7.94e+03,1.08e+03,1.10e+05
5116,1.26e+05,-2.60e+03,-6.28e+02,-1.12e+04,9.29e+02,6.23e+03,1.30e+05
5117,7.56e+04,-6.35e+02,-5.72e+02,-1.17e+04,3.99e+02,-5.95e+03,7.96e+04
5118,7.55e+04,1.85e+03,1.93e+03,1.03e+03,3.06e+02,5.61e+03,7.42e+04
5119,1.25e+05,1.81e+03,3.06e+03,7.39e+02,6.98e+02,-5.54e+03,1.23e+05
5120,1.00e+05,5.97e+02,5.97e+02,-5.30e+03,-5.99e+03,-8.61e+02,1.01e+05
5121,6.90e+04,-9.22e+02,-8.40e+02,-1.08e+04,3.74e+02,5.61e+03,7.30e+04
5122,1.15e+05,-2.57e+03,-1.32e+03,-1.10e+04,1.15e+03,-5.54e+03,1.19e+05
5123,1.14e+05,1.86e+03,3.36e+03,6.13e+02,1.00e+03,5.21e+03,1.12e+05
5124,6.89e+04,1.96e+03,1.98e+03,1.89e+02,4.78e+02,-4.91e+03,6.75e+04
5125,9.20e+04,-1.77e+02,1.50e+03,-5.21e+03,6.74e+03,1.13e+03,9.26e+04
5126,1.04e+05,-2.50e+03,-9.99e+02,-1.01e+04,9.12e+02,5.21e+03,1.08e+05
5127,6.25e+04,-7.74e+02,-7.58e+02,-1.06e+04,3.70e+02,-4.91e+03,6.64e+04
5128,6.23e+04,1.76e+03,1.80e+03,3.82e+00,2.89e+02,4.61e+03,6.10e+04
5129,1.03e+05,1.86e+03,2.83e+03,-3.33e+02,7.57e+02,-4.53e+03,1.01e+05
5130,8.29e+04,6.07e+02,3.30e+02,-5.28e+03,-4.83e+03,-8.63e+02,8.34e+04
5131,5.59e+04,-9.88e+02,-9.43e+02,-9.65e+03,3.39e+02,4.61e+03,5.98e+04
5132,9.30e+04,-2.50e+03,-1.54e+03,-9.93e+03,1.09e+03,-4.53e+03,9.69e+04
5133,9.23e+04,1.93e+03,3.04e+03,-4.34e+02,9.76e+02,4.18e+03,9.02e+04
5134,5.58e+04,1.86e+03,1.82e+03,-8.97e+02,4.38e+02,-3.92e+03,5.44e+04
5135,7.45e+04,-2.43e+02,1.27e+03,-5.20e+03,5.54e+03,1.11e+03,7.52e+04
5136,8.23e+04,-2.39e+03,-1.28e+03,-8.98e+03,8.89e+02,4.18e+03,8.59e+04
5137,4.94e+04,-8.74e+02,-9.18e+02,-9.51e+03,3.35e+02,-3.92e+03,5.33e+04
5138,4.92e+04,1.72e+03,1.62e+03,-1.03e+03,2.65e+02,3.59e+03,4.79e+04
5139,8.14e+04,1.94e+03,2.56e+03,-1.35e+03,7.46e+02,-3.53e+03,7.94e+04
5140,6.54e+04,5.97e+02,8.43e+01,-5.22e+03,-3.71e+03,-8.80e+02,6.61e+04
5141,4.29e+04,-9.90e+02,-1.09e+03,-8.46e+03,2.91e+02,3.59e+03,4.67e+04
5142,7.13e+04,-2.36e+03,-1.74e+03,-8.74e+03,9.51e+02,-3.53e+03,7.52e+04
5143,7.08e+04,1.98e+03,2.60e+03,-1.33e+03,8.46e+02,3.18e+03,6.88e+04
5144,4.26e+04,1.85e+03,1.56e+03,-1.83e+03,3.18e+02,-3.03e+03,4.13e+04
5145,5.71e+04,-2.38e+02,9.28e+02,-5.08e+03,4.32e+03,1.05e+03,5.79e+04
5146,6.13e+04,-2.09e+03,-1.47e+03,-7.61e+03,7.61e+02,3.18e+03,6.47e+04
5147,3.62e+04,-8.74e+02,-1.17e+03,-8.15e+03,2.24e+02,-3.03e+03,4.02e+04
5148,3.62e+04,1.82e+03,1.34e+03,-1.66e+03,1.38e+02,2.61e+03,3.51e+04
5149,6.04e+04,2.01e+03,2.26e+03,-1.97e+03,6.15e+02,-2.66e+03,5.85e+04
5150,4.84e+04,7.22e+02,-1.55e+02,-4.81e+03,-2.81e+03,-9.10e+02,4.91e+04
5151,3.00e+04,-8.31e+02,-1.31e+03,-6.76e+03,1.73e+02,2.61e+03,3.35e+04
5152,5.14e+04,-1.82e+03,-1.57e+03,-7.08e+03,8.10e+02,-2.66e+03,5.47e+04
5153,5.14e+04,1.83e+03,2.53e+03,-1.44e+03,4.91e+02,2.42e+03,4.95e+04
5154,2.93e+04,2.11e+03,1.44e+03,-1.86e+03,8.96e+01,-2.46e+03,2.81e+04
5155,4.07e+04,-4.41e+01,7.70e+02,-4.30e+03,3.30e+03,9.24e+02,4.14e+04
5156,4.43e+04,-1.20e+03,-4.95e+02,-5.46e+03,6.22e+02,2.42e+03,4.64e+04
5157,2.27e+04,-7.08e+02,-1.38e+03,-6.05e+03,2.41e+02,-2.46e+03,2.63e+04
5158,2.29e+04,1.97e+03,1.63e+03,-3.95e+02,-3.98e+01,1.85e+03,2.14e+04
5159,4.37e+04,1.94e+03,3.70e+03,-1.12e+03,9.22e+02,-2.40e+03,4.12e+04
5160,3.34e+04,1.36e+03,4.36e+02,-3.17e+03,-2.51e+03,-1.05e+03,3.33e+04
5161,1.56e+04,-1.16e+03,-1.50e+03,-3.87e+03,1.69e+02,1.85e+03,1.85e+04
5162,3.88e+04,-1.61e+02,1.60e+03,-4.70e+03,2.41e+03,-2.40e+03,3.94e+04
5163,3.77e+04,8.16e+02,7.86e+03,1.78e+02,1.12e+03,2.35e+03,3.43e+04
5164,1.48e+04,1.98e+03,3.24e+03,1.21e+03,5.70e+02,-2.03e+03,1.29e+04
5165,2.80e+04,6.89e+02,4.38e+03,-1.54e+03,4.57e+03,1.07e+03,2.71e+04
5166,3.25e+04,-1.41e+03,5.63e+03,-4.71e+03,1.87e+03,2.35e+03,3.25e+04
5167,4.74e+03,-2.31e+03,-1.05e+03,-4.25e+03,9.52e+02,-2.03e+03,1.06e+04
5168,9.83e+03,-3.71e+03,4.43e+03,1.46e+03,-2.22e+03,2.53e+02,1.27e+04
5169,3.81e+04,-4.67e+03,1.43e+04,5.99e+01,6.51e+03,-3.88e+03,3.94e+04
5170,1.70e+04,-4.54e+02,3.26e+03,-1.58e+03,-2.98e+03,-8.50e+02,1.71e+04
5171,1.89e+03,-7.11e+03,1.03e+03,-5.31e+03,-2.36e+03,2.53e+02,1.32e+04
5172,2.35e+04,-1.10e+04,8.02e+03,-2.20e+04,7.10e+03,-3.88e+03,5.03e+04
5173,1.62e+04,-9.32e+04,-8.26e+03,-2.39e+04,-5.40e+03,9.04e+03,1.09e+05
5174,-3.16e+03,-7.10e+04,-1.13e+04,-2.63e+03,7.59e+03,-5.67e+02,6.56e+04
5175,9.02e+03,-3.82e+04,7.45e+02,-1.22e+04,6.56e+03,-9.84e+03,5.27e+04
5176,-2.48e+05,-7.78e+04,-8.45e+04,-5.22e+04,1.51e+04,3.57e+03,1.92e+05
5177,-1.44e+05,-4.65e+04,-4.68e+04,-2.37e+04,3.06e+04,-1.89e+03,1.18e+05
5178,-7.81e+04,-8.67e+02,-6.89e+02,-6.37e+03,1.12e+04,1.11e+04,8.28e+04
5179,-2.35e+05,-1.76e+04,-2.91e+04,-4.53e+03,2.03e+04,-1.29e+04,2.16e+05
5180,-1.59e+05,-2.43e+04,-4.05e+04,-2.46e+04,3.79e+04,9.38e+03,1.51e+05
5181,-9.49e+04,-8.04e+03,-7.86e+03,-2.52e+04,9.21e+03,1.11e+04,1.00e+05
5182,-1.89e+05,2.23e+03,-9.25e+03,-1.47e+04,8.11e+03,-1.29e+04,1.89e+05
5183,-1.90e+05,-4.02e+03,-8.95e+03,-2.27e+03,6.90e+03,7.50e+03,1.84e+05
5184,-1.09e+05,-3.01e+03,-4.37e+03,3.02e+03,5.41e+03,-9.66e+03,1.07e+05
5185,-1.53e+05,-9.94e+03,-6.49e+03,-9.57e+03,-4.70e+03,-2.05e+03,1.46e+05
5186,-1.71e+05,4.24e+03,-6.97e+02,-1.46e+04,-7.62e+01,7.50e+03,1.75e+05
5187,-9.88e+04,1.41e+03,4.89e+01,-1.47e+04,4.27e+02,-9.66e+03,1.04e+05
5188,-1.01e+05,-2.13e+03,-2.63e+03,1.80e+03,9.79e+02,7.32e+03,9.97e+04
5189,-1.69e+05,-1.53e+03,-8.46e+03,2.21e+03,-5.77e+02,-6.99e+03,1.65e+05
5190,-1.34e+05,1.61e+03,-9.96e+02,-5.93e+03,9.79e+03,-1.73e+03,1.36e+05
5191,-9.48e+04,6.21e+02,1.24e+02,-1.37e+04,-4.16e+02,7.32e+03,9.89e+04
5192,-1.58e+05,3.22e+03,-3.71e+03,-1.30e+04,1.18e+03,-6.99e+03,1.60e+05
5193,-1.58e+05,-1.47e+03,-3.41e+03,2.18e+03,-5.26e+01,7.11e+03,1.56e+05
5194,-9.30e+04,-1.31e+03,-1.85e+03,1.91e+03,-8.39e+01,-7.42e+03,9.24e+04
5195,-1.26e+05,2.60e+02,-1.21e+03,-6.09e+03,-8.56e+03,6.79e+02,1.26e+05
5196,-1.47e+05,3.09e+03,1.15e+03,-1.26e+04,-1.49e+03,7.11e+03,1.52e+05
5197,-8.73e+04,1.13e+03,5.82e+02,-1.37e+04,-6.65e+02,-7.42e+03,9.22e+04
5198,-8.84e+04,-2.02e+03,-1.97e+03,1.74e+03,-3.88e+02,6.70e+03,8.73e+04
5199,-1.47e+05,-1.17e+03,-6.40e+03,4.64e+02,-2.49e+03,-5.79e+03,1.43e+05
5200,-1.17e+05,-4.36e+02,2.59e+02,-5.71e+03,6.73e+03,-1.00e+03,1.18e+05
5201,-8.20e+04,7.17e+02,7.71e+02,-1.23e+04,-4.05e+02,6.70e+03,8.63e+04
5202,-1.37e+05,2.99e+03,-2.24e+03,-1.26e+04,3.74e+02,-5.79e+03,1.40e+05
5203,-1.36e+05,-1.58e+03,-2.74e+03,1.28e+03,-8.51e+02,6.12e+03,1.34e+05
5204,-8.12e+04,-1.41e+03,-1.69e+03,3.10e+02,-4.03e+02,-6.14e+03,8.04e+04
5205,-1.08e+05,1.10e+03,-1.00e+03,-6.07e+03,-7.72e+03,9.90e+02,1.10e+05
5206,-1.26e+05,2.80e+03,1.63e+03,-1.15e+04,-1.41e+03,6.12e+03,1.30e+05
5207,-7.52e+04,1.17e+03,8.95e+02,-1.28e+04,-5.04e+02,-6.14e+03,8.01e+04
5208,-7.54e+04,-1.94e+03,-1.84e+03,7.42e+02,-4.05e+02,5.79e+03,7.42e+04
5209,-1.25e+05,-1.39e+03,-5.66e+03,-7.93e+02,-2.49e+03,-4.90e+03,1.22e+05
5210,-1.00e+05,-8.44e+02,5.89e+02,-5.90e+03,5.55e+03,-9.45e+02,1.01e+05
5211,-6.90e+04,7.98e+02,8.98e+02,-1.12e+04,-2.95e+02,5.79e+03,7.31e+04
5212,-1.16e+05,2.87e+03,-1.40e+03,-1.17e+04,1.66e+02,-4.90e+03,1.18e+05
5213,-1.14e+05,-1.68e+03,-2.60e+03,2.23e+02,-9.37e+02,5.11e+03,1.12e+05
5214,-6.85e+04,-1.46e+03,-1.66e+03,-9.12e+02,-3.81e+02,-5.07e+03,6.76e+04
5215,-9.11e+04,1.24e+03,-9.58e+02,-6.07e+03,-6.57e+03,1.06e+03,9.26e+04
5216,-1.04e+05,2.67e+03,1.76e+03,-1.05e+04,-1.34e+03,5.11e+03,1.08e+05
5217,-6.23e+04,1.21e+03,1.01e+03,-1.18e+04,-4.42e+02,-5.07e+03,6.72e+04
5218,-6.23e+04,-1.83e+03,-1.76e+03,-3.24e+02,-3.65e+02,4.76e+03,6.10e+04
5219,-1.04e+05,-1.54e+03,-5.04e+03,-1.84e+03,-2.26e+03,-4.01e+03,1.01e+05
5220,-8.31e+04,-9.54e+02,6.51e+02,-5.96e+03,4.48e+03,-9.43e+02,8.40e+04
5221,-5.59e+04,9.12e+02,9.79e+02,-1.01e+04,-2.82e+02,4.76e+03,6.00e+04
5222,-9.37e+04,2.75e+03,-7.39e+02,-1.08e+04,-8.04e+01,-4.01e+03,9.68e+04
5223,-9.23e+04,-1.76e+03,-2.54e+03,-8.51e+02,-9.82e+02,4.10e+03,9.04e+04
5224,-5.55e+04,-1.42e+03,-1.62e+03,-2.03e+03,-3.81e+02,-4.05e+03,5.45e+04
5225,-7.37e+04,1.27e+03,-9.47e+02,-6.08e+03,-5.47e+03,1.06e+03,7.53e+04
5226,-8.21e+04,2.61e+03,1.83e+03,-9.45e+03,-1.33e+03,4.10e+03,8.62e+04
5227,-4.92e+04,1.27e+03,1.07e+03,-1.08e+04,-4.51e+02,-4.05e+03,5.42e+04
5228,-4.91e+04,-1.67e+03,-1.73e+03,-1.43e+03,-3.56e+02,3.69e+03,4.79e+04
5229,-8.18e+04,-1.65e+03,-4.45e+03,-2.92e+03,-2.06e+03,-3.12e+03,7.92e+04
5230,-6.57e+04,-9.97e+02,6.76e+02,-6.03e+03,3.35e+03,-9.61e+02,6.67e+04
5231,-4.27e+04,1.09e+03,1.03e+03,-9.11e+03,-3.16e+02,3.69e+03,4.70e+04
5232,-7.16e+04,2.70e+03,-1.02e+02,-1.00e+04,-4.24e+02,-3.12e+03,7.52e+04
5233,-7.03e+04,-1.84e+03,-2.58e+03,-2.08e+03,-1.12e+03,3.01e+03,6.84e+04
5234,-4.24e+04,-1.25e+03,-1.62e+03,-3.31e+03,-4.59e+02,-3.00e+03,4.17e+04
5235,-5.62e+04,1.37e+03,-1.02e+03,-6.22e+03,-4.41e+03,1.05e+03,5.80e+04
5236,-5.97e+04,2.70e+03,1.96e+03,-8.63e+03,-1.45e+03,3.01e+03,6.40e+04
5237,-3.62e+04,1.42e+03,1.05e+03,-1.01e+04,-5.31e+02,-3.00e+03,4.16e+04
5238,-3.59e+04,-1.40e+03,-1.76e+03,-2.87e+03,-4.52e+02,2.55e+03,3.50e+04
5239,-5.93e+04,-1.79e+03,-3.93e+03,-4.40e+03,-1.99e+03,-2.16e+03,5.72e+04
5240,-4.80e+04,-1.02e+03,7.07e+02,-6.43e+03,2.03e+03,-1.01e+03,4.93e+04
5241,-2.94e+04,1.41e+03,1.05e+03,-8.49e+03,-4.17e+02,2.55e+03,3.42e+04
5242,-4.85e+04,2.84e+03,7.01e+02,-9.62e+03,-9.29e+02,-2.16e+03,5.32e+04
5243,-4.68e+04,-2.14e+03,-2.74e+03,-3.91e+03,-1.54e+03,1.69e+03,4.51e+04
5244,-2.95e+04,-9.91e+02,-1.62e+03,-5.33e+03,-6.60e+02,-1.68e+03,2.99e+04
5245,-3.81e+04,1.63e+03,-1.22e+03,-6.86e+03,-3.33e+03,1.10e+03,4.06e+04
5246,-3.48e+04,3.00e+03,2.39e+03,-8.05e+03,-1.66e+03,1.69e+03,4.02e+04
5247,-2.34e+04,1.65e+03,1.02e+03,-9.81e+03,-5.57e+02,-1.68e+03,3.01e+04
5248,-2.22e+04,-1.48e+03,-1.60e+03,-5.19e+03,-8.26e+02,1.20e+03,2.27e+04
5249,-3.47e+04,-2.49e+03,-3.16e+03,-6.71e+03,-1.93e+03,-9.72e+02,3.41e+04
5250,-2.93e+04,-1.28e+03,8.80e+02,-7.50e+03,3.15e+02,-1.15e+03,3.20e+04
5251,-1.53e+04,1.47e+03,1.36e+03,-7.66e+03,-6.14e+02,1.20e+03,2.15e+04
5252,-2.26e+04,2.68e+03,2.01e+03,-8.79e+03,-1.15e+03,-9.72e+02,2.93e+04
5253,-2.05e+04,-3.24e+03,-2.27e+03,-5.84e+03,-1.83e+03,3.35e+02,2.07e+04
5254,-1.58e+04,-2.34e+03,-1.05e+03,-7.78e+03,-5.35e+02,-1.82e+02,1.96e+04
5255,-1.80e+04,1.11e+03,-9.09e+02,-7.39e+03,-1.85e+03,1.29e+03,2.26e+04
5256,-8.93e+03,1.73e+03,2.70e+03,-5.35e+03,-1.21e+03,3.35e+02,1.47e+04
5257,-9.04e+03,5.63e+02,1.85e+03,-6.90e+03,2.38e+00,-1.82e+02,1.58e+04
5258,-7.63e+03,-3.75e+03,-2.20e+02,-5.90e+03,-7.66e+02,2.45e+02,1.21e+04
5259,-9.51e+03,-3.54e+03,-1.04e+03,-6.29e+03,-1.20e+03,-2.41e+01,1.34e+04
5260,-8.92e+03,-2.15e+03,1.66e+03,-6.21e+03,-6.01e+02,-9.91e+02,1.44e+04
5261,-1.94e+03,-1.31e+03,2.22e+03,-1.31e+03,-3.92e+02,2.45e+02,4.57e+03
5262,-2.51e+03,-5.41e+02,1.96e+03,-2.37e+03,-2.54e+02,-2.41e+01,5.66e+03
5263,-1.82e+03,-1.89e+03,4.88e+02,-1.57e+03,-3.23e+02,3.29e+02,3.68e+03
5264,-7.13e+02,-2.58e+03,2.12e+03,-2.52e+03,1.86e+02,3.29e+02,6.03e+03
5265,-9.73e+02,-8.74e+02,1.25e+03,-1.90e+03,-5.21e+02,6.11e+02,4.19e+03
5266,-3.50e+04,-1.23e+04,-1.07e+04,-6.38e+03,2.48e+03,2.33e+03,2.67e+04
5267,-1.43e+05,-4.47e+04,-4.60e+04,-1.91e+04,3.06e+04,-4.40e+03,1.16e+05
5268,-7.73e+04,1.02e+03,1.21e+02,3.16e+03,1.12e+04,8.66e+03,8.19e+04
5269,-3.74e+04,-1.26e+04,-5.11e+03,7.53e+03,3.55e+03,-5.65e+03,3.40e+04
5270,-5.29e+04,-1.75e+04,-2.43e+03,1.58e+03,1.45e+03,-2.64e+03,4.53e+04
5271,-9.41e+04,-6.15e+03,-7.05e+03,-1.56e+04,9.21e+03,8.66e+03,9.41e+04
5272,-3.59e+04,-1.20e+04,-4.46e+03,-1.81e+04,1.30e+03,-5.65e+03,4.35e+04
5273,-3.32e+04,-3.49e+03,-1.28e+03,-6.71e+02,1.67e+03,7.54e+03,3.36e+04
5274,-1.09e+05,-3.60e+03,-4.63e+03,-1.76e+03,5.41e+03,-9.11e+03,1.07e+05
5275,-7.46e+04,-9.23e+03,-1.12e+04,-1.06e+04,1.37e+04,2.21e+03,7.11e+04
5276,-3.32e+04,-3.52e+03,-1.30e+03,-2.06e+04,5.59e+02,7.54e+03,4.89e+04
5277,-9.91e+04,8.16e+02,-2.08e+02,-1.94e+04,4.27e+02,-9.11e+03,1.06e+05
5278,-1.01e+05,-1.01e+03,-2.15e+03,-4.26e+03,9.79e+02,6.86e+03,1.00e+05
5279,-3.27e+04,-7.57e+02,-8.15e+02,-2.79e+03,1.96e+02,-8.41e+03,3.54e+04
5280,-6.73e+04,-2.31e+03,-7.14e+02,-1.21e+04,-8.25e+03,-8.12e+02,7.05e+04
5281,-9.43e+04,1.75e+03,6.07e+02,-1.98e+04,-4.16e+02,6.86e+03,1.02e+05
5282,-3.09e+04,2.11e+01,-3.73e+01,-2.02e+04,-1.59e+02,-8.41e+03,4.89e+04
5283,-3.17e+04,-1.22e+03,-8.37e+02,-4.34e+03,-5.12e+00,6.49e+03,3.35e+04
5284,-9.26e+04,-2.79e+02,-1.41e+03,-4.68e+03,-8.39e+01,-7.65e+03,9.30e+04
5285,-6.26e+04,-1.07e+02,-7.08e+01,-1.21e+04,7.91e+03,-1.14e+03,6.73e+04
5286,-2.96e+04,-3.33e+02,5.22e+01,-1.95e+04,-1.81e+02,6.49e+03,4.62e+04
5287,-8.69e+04,2.16e+03,1.02e+03,-2.03e+04,-6.65e+02,-7.65e+03,9.62e+04
5288,-8.79e+04,-8.13e+02,-1.45e+03,-4.84e+03,-3.88e+02,6.29e+03,8.79e+04
5289,-2.90e+04,-5.47e+02,-6.00e+02,-5.95e+03,-1.58e+02,-7.00e+03,3.26e+04
5290,-5.78e+04,8.07e+02,-8.48e+02,-1.29e+04,-7.88e+03,-6.51e+01,6.34e+04
5291,-8.15e+04,1.93e+03,1.29e+03,-1.89e+04,-4.05e+02,6.29e+03,9.00e+04
5292,-2.71e+04,2.64e+02,2.10e+02,-2.04e+04,-1.30e+02,-7.00e+03,4.63e+04
5293,-2.74e+04,-1.01e+03,-7.13e+02,-5.41e+03,-9.19e+01,5.91e+03,3.00e+04
5294,-8.08e+04,-4.41e+02,-1.27e+03,-6.80e+03,-4.03e+02,-6.42e+03,8.16e+04
5295,-5.53e+04,-1.02e+03,3.64e+02,-1.28e+04,6.71e+03,-8.07e+02,6.04e+04
5296,-2.53e+04,-1.03e+02,1.93e+02,-1.84e+04,-1.02e+02,5.91e+03,4.20e+04
5297,-7.48e+04,2.14e+03,1.31e+03,-2.00e+04,-5.04e+02,-6.42e+03,8.47e+04
5298,-7.49e+04,-9.03e+02,-1.39e+03,-5.91e+03,-4.05e+02,5.46e+03,7.51e+04
5299,-2.50e+04,-6.15e+02,-6.13e+02,-7.59e+03,-1.40e+02,-5.77e+03,2.95e+04
5300,-4.88e+04,1.47e+03,-6.64e+02,-1.31e+04,-6.72e+03,2.82e+02,5.55e+04
5301,-6.85e+04,1.83e+03,1.34e+03,-1.78e+04,-2.95e+02,5.46e+03,7.72e+04
5302,-2.30e+04,2.65e+02,2.67e+02,-1.96e+04,-8.22e+01,-5.77e+03,4.23e+04
5303,-2.30e+04,-9.06e+02,-6.70e+02,-6.51e+03,-7.01e+01,5.02e+03,2.64e+04
5304,-6.82e+04,-6.27e+02,-1.30e+03,-8.14e+03,-3.81e+02,-5.30e+03,6.93e+04
5305,-4.70e+04,-1.35e+03,3.21e+02,-1.30e+04,5.66e+03,-6.47e+02,5.25e+04
5306,-2.09e+04,3.52e+00,2.40e+02,-1.74e+04,-7.31e+01,5.02e+03,3.77e+04
5307,-6.19e+04,2.04e+03,1.37e+03,-1.90e+04,-4.42e+02,-5.30e+03,7.23e+04
5308,-6.19e+04,-9.67e+02,-1.39e+03,-7.00e+03,-3.65e+02,4.50e+03,6.24e+04
5309,-2.07e+04,-5.81e+02,-5.98e+02,-8.79e+03,-1.22e+02,-4.69e+03,2.65e+04
5310,-4.01e+04,1.62e+03,-5.75e+02,-1.31e+04,-5.57e+03,3.85e+02,4.76e+04
5311,-5.55e+04,1.78e+03,1.35e+03,-1.68e+04,-2.82e+02,4.50e+03,6.45e+04
5312,-1.86e+04,3.13e+02,2.96e+02,-1.86e+04,-8.35e+01,-4.69e+03,3.82e+04
5313,-1.86e+04,-7.53e+02,-6.40e+02,-7.62e+03,-5.28e+01,4.03e+03,2.34e+04
5314,-5.52e+04,-6.95e+02,-1.31e+03,-9.31e+03,-3.81e+02,-4.23e+03,5.70e+04
5315,-3.83e+04,-1.39e+03,3.23e+02,-1.30e+04,4.54e+03,-5.91e+02,4.47e+04
5316,-1.66e+04,1.42e+02,2.54e+02,-1.63e+04,-6.55e+01,4.03e+03,3.36e+04
5317,-4.89e+04,1.99e+03,1.38e+03,-1.81e+04,-4.51e+02,-4.23e+03,5.99e+04
5318,-4.88e+04,-8.88e+02,-1.39e+03,-8.18e+03,-3.56e+02,3.48e+03,5.01e+04
5319,-1.64e+04,-3.45e+02,-5.70e+02,-9.99e+03,-1.50e+02,-3.62e+03,2.44e+04
5320,-3.13e+04,1.78e+03,-5.41e+02,-1.32e+04,-4.44e+03,3.99e+02,4.01e+04
5321,-4.24e+04,1.87e+03,1.37e+03,-1.59e+04,-3.16e+02,3.48e+03,5.22e+04
5322,-1.45e+04,4.86e+02,2.61e+02,-1.77e+04,-1.29e+02,-3.62e+03,3.46e+04
5323,-1.45e+04,-3.38e+02,-6.28e+02,-8.91e+03,-6.85e+01,3.00e+03,2.15e+04
5324,-4.21e+04,-4.51e+02,-1.28e+03,-1.07e+04,-4.59e+02,-3.16e+03,4.55e+04
5325,-2.97e+04,-1.21e+03,3.56e+02,-1.33e+04,3.34e+03,-5.40e+02,3.77e+04
5326,-1.26e+04,4.53e+02,1.63e+02,-1.55e+04,-7.63e+01,3.00e+03,3.03e+04
5327,-3.58e+04,2.22e+03,1.39e+03,-1.75e+04,-5.31e+02,-3.16e+03,4.86e+04
5328,-3.55e+04,-4.87e+02,-1.37e+03,-9.77e+03,-4.52e+02,2.32e+03,3.87e+04
5329,-1.28e+04,3.69e+02,-5.00e+02,-1.17e+04,-2.93e+02,-2.46e+03,2.43e+04
5330,-2.28e+04,2.34e+03,-5.43e+02,-1.36e+04,-3.30e+03,3.50e+02,3.40e+04
5331,-2.90e+04,2.32e+03,1.44e+03,-1.54e+04,-4.17e+02,2.32e+03,4.10e+04
5332,-1.16e+04,9.13e+02,4.50e+01,-1.74e+04,-2.04e+02,-2.46e+03,3.27e+04
5333,-1.10e+04,3.53e+02,-5.72e+02,-1.09e+04,-2.88e+02,1.89e+03,2.21e+04
5334,-2.91e+04,-6.50e+01,-1.23e+03,-1.29e+04,-6.60e+02,-2.00e+03,3.64e+04
5335,-2.17e+04,-8.62e+02,3.92e+02,-1.42e+04,1.88e+03,-5.03e+02,3.28e+04
5336,-9.83e+03,8.71e+02,-5.41e+01,-1.54e+04,-1.91e+02,1.89e+03,2.88e+04
5337,-2.30e+04,2.58e+03,1.42e+03,-1.74e+04,-5.57e+02,-2.00e+03,3.93e+04
5338,-2.21e+04,-1.12e+03,-1.44e+03,-1.21e+04,-8.26e+02,8.81e+02,2.96e+04
5339,-1.06e+04,2.79e+02,-3.66e+02,-1.45e+04,-3.50e+02,-1.09e+03,2.73e+04
5340,-1.48e+04,2.62e+03,-6.50e+02,-1.48e+04,-2.04e+03,4.27e+02,3.05e+04
5341,-1.52e+04,1.83e+03,1.51e+03,-1.45e+04,-6.14e+02,8.81e+02,3.04e+04
5342,-1.00e+04,5.41e+02,-1.05e+02,-1.79e+04,7.48e+01,-1.09e+03,3.26e+04
5343,-7.47e+03,-2.29e+03,-1.89e+02,-1.33e+04,-1.21e+03,4.96e+02,2.41e+04
5344,-1.66e+04,-4.10e+03,-1.80e+03,-1.53e+04,-5.35e+02,-6.82e+02,2.98e+04
5345,-1.47e+04,-3.27e+03,1.34e+02,-1.55e+04,3.08e+02,-9.86e+02,3.01e+04
5346,-5.15e+03,-1.30e+03,8.06e+02,-1.37e+04,-9.73e+02,4.96e+02,2.44e+04
5347,-9.80e+03,-1.20e+03,1.10e+03,-1.44e+04,2.38e+00,-6.82e+02,2.69e+04
5348,-9.79e+03,-8.78e+03,-2.38e+03,-1.11e+04,-7.66e+02,2.13e+02,2.06e+04
5349,-5.25e+03,-8.65e+03,5.70e+02,-1.52e+04,6.32e+02,-4.03e+00,2.76e+04
5350,-5.50e+03,-3.05e+03,-5.67e+02,-1.34e+04,-1.05e+03,1.26e+03,2.38e+04
5351,-4.09e+03,-6.34e+03,6.27e+01,-6.55e+03,-3.92e+02,2.13e+02,1.27e+04
5352,-1.34e+03,-6.97e+03,2.24e+03,-8.56e+03,8.41e+02,-4.03e+00,1.69e+04
5353,1.96e+03,-1.09e+04,3.05e+03,-6.99e+03,-1.14e+03,1.37e+03,1.84e+04
5354,-4.43e+03,-1.13e+04,-1.60e+03,-7.44e+03,1.86e+02,1.24e+03,1.57e+04
5355,-3.34e+03,-8.92e+03,2.05e+03,-7.55e+03,9.57e+02,-1.21e+02,1.62e+04
5356,-3.41e+04,-1.03e+04,-9.86e+03,-8.40e+03,2.48e+03,1.57e+03,2.86e+04
5357,4.73e+04,1.61e+04,1.59e+04,-1.01e+04,-1.07e+04,-3.18e+03,4.07e+04
5358,2.28e+04,-2.61e+03,-1.81e+03,6.44e+03,-3.74e+03,7.13e+03,3.07e+04
5359,-3.15e+04,1.01e+03,7.38e+02,1.08e+04,3.55e+03,-7.06e+03,3.99e+04
5360,-7.04e+03,3.97e+03,-7.10e+03,1.92e+03,6.89e+03,-1.03e+02,1.66e+04
5361,2.86e+04,-1.28e+02,6.76e+02,-1.58e+04,-2.83e+03,7.13e+03,4.15e+04
5362,-3.00e+04,1.65e+03,1.39e+03,-1.48e+04,1.30e+03,-7.06e+03,4.25e+04
5363,-3.10e+04,1.66e+03,9.28e+02,-1.03e+03,1.67e+03,7.26e+03,3.48e+04
5364,3.37e+04,-1.12e+03,1.99e+02,9.32e+02,-1.44e+03,-8.61e+03,3.74e+04
5365,2.14e+03,-5.20e+02,4.70e+03,-7.99e+03,-8.35e+03,4.87e+01,2.05e+04
5366,-3.10e+04,1.63e+03,9.04e+02,-2.09e+04,5.59e+02,7.26e+03,5.02e+04
5367,3.13e+04,-2.15e+03,-8.30e+02,-2.03e+04,-6.23e+01,-8.61e+03,5.03e+04
5368,3.27e+04,-7.33e+02,1.30e+02,-5.16e+03,-3.76e+02,6.68e+03,3.61e+04
5369,-3.23e+04,2.73e+02,-3.74e+02,-4.63e+03,1.96e+02,-8.46e+03,3.63e+04
5370,2.33e+02,1.62e+02,-8.09e+02,-1.30e+04,8.39e+03,-8.11e+02,2.68e+04
5371,3.08e+04,-1.56e+03,-6.94e+02,-2.18e+04,1.33e+02,6.68e+03,5.08e+04
5372,-3.04e+04,1.05e+03,4.04e+02,-2.20e+04,-1.59e+02,-8.46e+03,5.14e+04
5373,-3.11e+04,2.32e+02,-2.14e+02,-6.41e+03,-5.12e+00,6.40e+03,3.48e+04
5374,3.06e+04,-2.11e+02,3.41e+02,-6.79e+03,5.48e+01,-7.80e+03,3.54e+04
5375,9.87e+01,-8.46e+00,-3.85e+02,-1.43e+04,-7.98e+03,-9.10e+02,2.85e+04
5376,-2.90e+04,1.12e+03,6.75e+02,-2.16e+04,-1.81e+02,6.40e+03,4.91e+04
5377,2.88e+04,-9.91e+02,-4.38e+02,-2.26e+04,1.54e+02,-7.80e+03,5.08e+04
5378,2.90e+04,-1.94e+02,2.10e+02,-7.03e+03,8.88e+01,6.17e+03,3.32e+04
5379,-2.87e+04,1.59e+02,-2.98e+02,-8.19e+03,-1.58e+02,-7.11e+03,3.43e+04
5380,-7.44e+02,-7.49e+02,5.92e+02,-1.49e+04,7.45e+03,-6.52e+02,2.89e+04
5381,2.69e+04,-1.08e+03,-6.79e+02,-2.11e+04,1.32e+02,6.17e+03,4.72e+04
5382,-2.68e+04,9.69e+02,5.12e+02,-2.26e+04,-1.30e+02,-7.11e+03,4.94e+04
5383,-2.69e+04,9.84e+01,-2.38e+02,-7.61e+03,-9.19e+01,5.83e+03,3.16e+04
5384,2.68e+04,-1.23e+02,3.10e+02,-9.17e+03,1.54e+02,-6.48e+03,3.30e+04
5385,1.14e+03,1.17e+03,-5.26e+02,-1.52e+04,-6.93e+03,-4.34e+02,2.89e+04
5386,-2.48e+04,1.00e+03,6.68e+02,-2.06e+04,-1.02e+02,5.83e+03,4.51e+04
5387,2.48e+04,-9.72e+02,-5.39e+02,-2.23e+04,1.00e+02,-6.48e+03,4.77e+04
5388,2.48e+04,-5.91e+01,2.58e+02,-8.18e+03,8.91e+01,5.42e+03,3.00e+04
5389,-2.47e+04,6.01e+01,-3.24e+02,-9.92e+03,-1.40e+02,-5.88e+03,3.17e+04
5390,-1.35e+03,-1.43e+03,4.54e+02,-1.53e+04,6.39e+03,-2.96e+02,2.88e+04
5391,2.27e+04,-9.61e+02,-6.44e+02,-2.01e+04,8.84e+01,5.42e+03,4.31e+04
5392,-2.27e+04,9.40e+02,5.57e+02,-2.19e+04,-8.22e+01,-5.88e+03,4.57e+04
5393,-2.26e+04,3.59e+00,-2.80e+02,-8.73e+03,-7.01e+01,4.97e+03,2.84e+04
5394,2.26e+04,-1.99e+01,3.33e+02,-1.06e+04,1.37e+02,-5.32e+03,3.04e+04
5395,1.47e+03,1.54e+03,-3.99e+02,-1.53e+04,-5.84e+03,-2.15e+02,2.85e+04
5396,-2.05e+04,9.13e+02,6.29e+02,-1.96e+04,-7.31e+01,4.97e+03,4.10e+04
5397,2.06e+04,-9.00e+02,-5.47e+02,-2.14e+04,8.01e+01,-5.32e+03,4.38e+04
5398,2.05e+04,6.59e+01,2.98e+02,-9.28e+03,8.64e+01,4.48e+03,2.70e+04
5399,-2.04e+04,2.70e+00,-3.48e+02,-1.11e+04,-1.22e+02,-4.78e+03,2.92e+04
5400,-1.46e+03,-1.58e+03,3.77e+02,-1.54e+04,5.29e+03,-1.67e+02,2.82e+04
5401,1.84e+04,-8.44e+02,-6.12e+02,-1.90e+04,8.11e+01,4.48e+03,3.89e+04
5402,-1.84e+04,8.97e+02,5.47e+02,-2.09e+04,-8.35e+01,-4.78e+03,4.18e+04
5403,-1.83e+04,3.14e+00,-3.16e+02,-9.84e+03,-5.28e+01,3.98e+03,2.58e+04
5404,1.84e+04,1.94e+02,3.68e+02,-1.17e+04,1.14e+02,-4.25e+03,2.81e+04
5405,1.55e+03,1.69e+03,-3.50e+02,-1.54e+04,-4.73e+03,-1.56e+02,2.80e+04
5406,-1.62e+04,8.98e+02,5.78e+02,-1.85e+04,-6.55e+01,3.98e+03,3.70e+04
5407,1.62e+04,-7.18e+02,-5.43e+02,-2.03e+04,5.87e+01,-4.25e+03,3.97e+04
5408,1.61e+04,3.84e+02,3.39e+02,-1.04e+04,8.96e+01,3.50e+03,2.47e+04
5409,-1.62e+04,1.93e+02,-3.39e+02,-1.23e+04,-1.50e+02,-3.72e+03,2.74e+04
5410,-1.51e+03,-1.42e+03,3.71e+02,-1.54e+04,4.17e+03,-9.27e+01,2.77e+04
5411,1.39e+04,-5.79e+02,-6.24e+02,-1.79e+04,7.63e+01,3.50e+03,3.48e+04
5412,-1.42e+04,1.02e+03,4.91e+02,-1.99e+04,-1.29e+02,-3.72e+03,3.82e+04
5413,-1.42e+04,3.78e+02,-3.21e+02,-1.10e+04,-6.85e+01,2.91e+03,2.42e+04
5414,1.37e+04,8.64e+02,4.69e+02,-1.28e+04,1.33e+01,-3.18e+03,2.64e+04
5415,1.41e+03,2.15e+03,-2.96e+02,-1.54e+04,-3.64e+03,-1.98e+02,2.75e+04
5416,-1.23e+04,1.17e+03,4.70e+02,-1.76e+04,-7.63e+01,2.91e+03,3.35e+04
5417,1.12e+04,-2.33e+02,-6.28e+02,-1.93e+04,-1.54e+01,-3.18e+03,3.58e+04
5418,1.13e+04,1.24e+03,4.20e+02,-1.15e+04,1.21e+00,2.55e+03,2.30e+04
5419,-1.25e+04,1.04e+03,-2.14e+02,-1.35e+04,-2.93e+02,-2.72e+03,2.71e+04
5420,-2.09e+03,-7.66e+02,3.88e+02,-1.55e+04,2.96e+03,1.04e+01,2.74e+04
5421,8.46e+03,3.52e+01,-7.89e+02,-1.69e+04,4.16e+01,2.55e+03,3.09e+04
5422,-1.13e+04,1.58e+03,3.31e+02,-1.92e+04,-2.04e+02,-2.72e+03,3.57e+04
5423,-1.07e+04,1.24e+03,-1.91e+02,-1.22e+04,-2.88e+02,1.62e+03,2.41e+04
5424,7.53e+03,2.10e+03,7.16e+02,-1.43e+04,-2.45e+02,-2.10e+03,2.58e+04
5425,3.25e+02,3.29e+03,-2.00e+02,-1.56e+04,-2.62e+03,-3.64e+02,2.76e+04
5426,-9.45e+03,1.76e+03,3.27e+02,-1.68e+04,-1.91e+02,1.62e+03,3.10e+04
5427,3.54e+03,3.91e+02,-9.91e+02,-1.90e+04,-1.20e+01,-2.10e+03,3.33e+04
5428,4.62e+03,1.44e+03,5.55e+02,-1.33e+04,-4.83e+02,1.46e+03,2.35e+04
5429,-1.03e+04,9.79e+02,-6.66e+01,-1.54e+04,-3.50e+02,-1.70e+03,2.89e+04
5430,-4.82e+03,-6.10e+02,2.91e+02,-1.62e+04,1.53e+03,-9.40e+01,2.86e+04
5431,3.57e+02,-3.88e+02,-1.27e+03,-1.73e+04,-2.27e+02,1.46e+03,3.01e+04
5432,-9.73e+03,1.24e+03,1.95e+02,-1.88e+04,7.48e+01,-1.70e+03,3.43e+04
5433,-7.76e+03,-2.98e+03,-4.83e+02,-1.43e+04,-1.21e+03,3.82e+01,2.57e+04
5434,-1.49e+03,-1.94e+03,6.68e+02,-1.77e+04,2.10e+02,-8.21e+02,3.07e+04
5435,-3.03e+03,1.39e+03,-7.22e+02,-1.68e+04,-1.34e+03,5.52e+01,2.94e+04
5436,-5.44e+03,-1.98e+03,5.12e+02,-1.47e+04,-9.73e+02,3.82e+01,2.60e+04
5437,-6.34e+03,-4.02e+03,-1.41e+03,-2.15e+04,9.50e+02,-8.21e+02,3.75e+04
5438,-2.99e+02,-1.13e+04,8.52e+02,-1.61e+04,-2.91e+03,-9.61e+02,3.06e+04
5439,-8.44e+03,-1.61e+04,-2.63e+03,-1.78e+04,6.32e+02,-6.01e+02,3.30e+04
5440,-9.62e+03,-1.23e+04,-1.28e+03,-1.82e+04,-1.64e+02,-2.26e+03,3.33e+04
5441,7.05e+01,-1.11e+04,1.01e+03,-1.35e+04,-3.32e+03,-9.61e+02,2.68e+04
5442,-4.54e+03,-1.44e+04,-9.52e+02,-1.11e+04,8.41e+02,-6.01e+02,2.28e+04
5443,-5.45e+03,-2.82e+04,-4.36e+03,-8.45e+03,-1.14e+03,9.33e+02,2.77e+04
5444,4.14e+03,-3.48e+04,2.99e+03,-1.56e+04,3.74e+03,-1.06e+03,4.74e+04
5445,4.95e+02,-2.06e+04,-1.49e+03,-1.15e+04,-1.72e+03,2.38e+03,2.88e+04
5446,1.09e+05,2.95e+04,3.19e+04,-1.80e+04,-8.25e+03,3.73e+03,8.53e+04
5447,4.81e+04,1.80e+04,1.67e+04,-7.96e+03,-1.07e+04,-3.02e+03,3.88e+04
5448,2.69e+04,7.08e+03,2.34e+03,2.42e+03,-3.74e+03,7.79e+03,2.74e+04
5449,1.08e+05,6.43e+03,5.34e+03,6.58e+03,-1.07e+04,-1.02e+04,1.05e+05
5450,6.81e+04,1.02e+04,1.81e+04,-5.35e+03,-1.80e+04,3.35e+03,6.37e+04
5451,3.27e+04,9.56e+03,4.83e+03,-1.98e+04,-2.83e+03,7.79e+03,4.53e+04
5452,1.01e+05,3.66e+03,2.57e+03,-1.48e+04,-2.99e+03,-1.02e+04,1.03e+05
5453,1.04e+05,9.79e+02,2.24e+03,-3.56e+03,-4.15e+03,7.55e+03,1.03e+05
5454,3.56e+04,3.34e+03,2.11e+03,1.90e+03,-1.44e+03,-8.74e+03,3.64e+04
5455,7.16e+04,9.61e+03,1.67e+03,-9.16e+03,6.17e+03,-2.01e+03,6.91e+04
5456,9.93e+04,-8.78e+02,3.80e+02,-1.95e+04,-9.07e+02,7.55e+03,1.06e+05
5457,3.32e+04,2.31e+03,1.08e+03,-1.93e+04,-6.23e+01,-8.74e+03,4.84e+04
5458,3.37e+04,1.44e+03,1.06e+03,-3.27e+03,-3.76e+02,6.75e+03,3.49e+04
5459,9.88e+04,5.54e+02,1.97e+03,-3.26e+03,-9.04e+02,-8.28e+03,9.88e+04
5460,6.67e+04,8.27e+02,1.88e+03,-1.13e+04,-9.18e+03,-8.26e+02,7.01e+04
5461,3.17e+04,6.19e+02,2.39e+02,-1.99e+04,1.33e+02,6.75e+03,4.80e+04
5462,9.27e+04,-2.08e+03,-6.56e+02,-2.00e+04,5.13e+02,-8.28e+03,1.01e+05
5463,9.42e+04,6.86e+02,1.58e+03,-4.27e+03,1.22e+02,6.63e+03,9.41e+04
5464,3.09e+04,5.22e+02,6.56e+02,-4.71e+03,5.48e+01,-7.69e+03,3.41e+04
5465,6.23e+04,-1.26e+02,8.81e+02,-1.25e+04,8.28e+03,-3.27e+02,6.71e+04
5466,8.79e+04,-2.02e+03,-1.13e+03,-1.93e+04,4.67e+02,6.63e+03,9.62e+04
5467,2.91e+04,-2.57e+02,-1.24e+02,-2.05e+04,1.54e+02,-7.69e+03,4.79e+04
5468,2.95e+04,1.05e+03,7.45e+02,-4.87e+03,8.88e+01,6.25e+03,3.18e+04
5469,8.68e+04,3.22e+02,1.29e+03,-5.90e+03,3.45e+02,-7.02e+03,8.75e+04
5470,5.91e+04,6.37e+02,-2.84e+02,-1.25e+04,-7.26e+03,-9.55e+02,6.41e+04
5471,2.75e+04,1.65e+02,-1.44e+02,-1.90e+04,1.32e+02,6.25e+03,4.42e+04
5472,8.10e+04,-2.19e+03,-1.21e+03,-2.03e+04,5.77e+02,-7.02e+03,9.07e+04
5473,8.14e+04,8.47e+02,1.40e+03,-5.37e+03,4.27e+02,5.90e+03,8.15e+04
5474,2.71e+04,5.82e+02,6.12e+02,-6.88e+03,1.54e+02,-6.35e+03,3.11e+04
5475,5.33e+04,-1.27e+03,7.55e+02,-1.30e+04,7.30e+03,1.53e+02,5.95e+04
5476,7.50e+04,-1.89e+03,-1.33e+03,-1.84e+04,3.34e+02,5.90e+03,8.36e+04
5477,2.51e+04,-2.67e+02,-2.37e+02,-2.00e+04,1.00e+02,-6.35e+03,4.44e+04
5478,2.52e+04,9.46e+02,6.88e+02,-5.97e+03,8.91e+01,5.49e+03,2.82e+04
5479,7.46e+04,5.34e+02,1.29e+03,-7.53e+03,4.01e+02,-5.85e+03,7.55e+04
5480,5.12e+04,1.23e+03,-3.38e+02,-1.29e+04,-6.19e+03,-7.02e+02,5.65e+04
5481,2.31e+04,4.39e+01,-2.14e+02,-1.79e+04,8.84e+01,5.49e+03,3.99e+04
5482,6.84e+04,-2.10e+03,-1.35e+03,-1.95e+04,4.66e+02,-5.85e+03,7.85e+04
5483,6.84e+04,9.45e+02,1.40e+03,-6.47e+03,3.96e+02,4.99e+03,6.87e+04
5484,2.29e+04,6.07e+02,6.02e+02,-8.23e+03,1.37e+02,-5.21e+03,2.80e+04
5485,4.45e+04,-1.57e+03,6.11e+02,-1.31e+04,6.15e+03,3.51e+02,5.15e+04
5486,6.20e+04,-1.79e+03,-1.34e+03,-1.73e+04,2.88e+02,4.99e+03,7.08e+04
5487,2.09e+04,-2.73e+02,-2.78e+02,-1.91e+04,8.01e+01,-5.21e+03,4.02e+04
5488,2.08e+04,8.70e+02,6.43e+02,-7.07e+03,8.64e+01,4.54e+03,2.48e+04
5489,6.18e+04,7.29e+02,1.31e+03,-8.72e+03,3.87e+02,-4.76e+03,6.31e+04
5490,4.27e+04,1.41e+03,-3.15e+02,-1.30e+04,-5.09e+03,-6.14e+02,4.86e+04
5491,1.87e+04,-3.96e+01,-2.67e+02,-1.68e+04,8.11e+01,4.54e+03,3.56e+04
5492,5.55e+04,-1.94e+03,-1.36e+03,-1.85e+04,4.25e+02,-4.76e+03,6.60e+04
5493,5.54e+04,1.10e+03,1.39e+03,-7.52e+03,3.78e+02,4.00e+03,5.61e+04
5494,1.86e+04,6.69e+02,5.72e+02,-9.33e+03,1.14e+02,-4.16e+03,2.52e+04
5495,3.58e+04,-1.56e+03,5.49e+02,-1.31e+04,5.01e+03,4.17e+02,4.37e+04
5496,4.90e+04,-1.63e+03,-1.34e+03,-1.61e+04,2.76e+02,4.00e+03,5.81e+04
5497,1.64e+04,-2.42e+02,-3.40e+02,-1.80e+04,5.87e+01,-4.16e+03,3.61e+04
5498,1.64e+04,9.49e+02,5.81e+02,-8.09e+03,8.96e+01,3.53e+03,2.19e+04
5499,4.88e+04,1.09e+03,1.34e+03,-9.72e+03,3.51e+02,-3.71e+03,5.09e+04
5500,3.40e+04,1.58e+03,-3.12e+02,-1.30e+04,-4.01e+03,-6.08e+02,4.09e+04
5501,1.41e+04,-1.38e+01,-3.82e+02,-1.56e+04,7.63e+01,3.53e+03,3.12e+04
5502,4.25e+04,-1.61e+03,-1.36e+03,-1.72e+04,3.52e+02,-3.71e+03,5.35e+04
5503,4.24e+04,1.55e+03,1.40e+03,-8.38e+03,3.14e+02,3.05e+03,4.38e+04
5504,1.38e+04,1.09e+03,5.67e+02,-1.02e+04,1.33e+01,-3.21e+03,2.26e+04
5505,2.70e+04,-1.24e+03,4.84e+02,-1.29e+04,3.88e+03,4.69e+02,3.60e+04
5506,3.61e+04,-1.18e+03,-1.33e+03,-1.47e+04,2.20e+02,3.05e+03,4.55e+04
5507,1.13e+04,-5.48e+00,-5.31e+02,-1.66e+04,-1.54e+01,-3.21e+03,3.15e+04
5508,1.14e+04,1.54e+03,5.45e+02,-8.73e+03,1.21e+00,2.44e+03,1.88e+04
5509,3.56e+04,2.00e+03,1.49e+03,-1.03e+04,1.49e+02,-2.76e+03,3.86e+04
5510,2.50e+04,2.21e+03,-2.37e+02,-1.26e+04,-3.09e+03,-7.24e+02,3.29e+04
5511,8.58e+03,3.28e+02,-6.63e+02,-1.41e+04,4.16e+01,2.44e+03,2.63e+04
5512,2.89e+04,-8.58e+02,-1.37e+03,-1.55e+04,2.11e+02,-2.76e+03,4.06e+04
5513,2.94e+04,2.40e+03,1.48e+03,-8.69e+03,2.29e+01,2.23e+03,3.16e+04
5514,7.57e+03,2.21e+03,7.64e+02,-1.05e+04,-2.45e+02,-2.57e+03,1.97e+04
5515,1.74e+04,-4.09e+02,3.97e+02,-1.23e+04,2.76e+03,4.98e+02,2.79e+04
5516,2.28e+04,-4.22e+02,-1.34e+03,-1.29e+04,1.74e+02,2.23e+03,3.28e+04
5517,3.59e+03,5.03e+02,-9.42e+02,-1.51e+04,-1.20e+01,-2.57e+03,2.69e+04
5518,5.03e+03,2.38e+03,9.58e+02,-8.60e+03,-4.83e+02,1.06e+03,1.55e+04
5519,2.05e+04,2.62e+03,1.91e+03,-1.09e+04,-2.04e+02,-2.19e+03,2.65e+04
5520,1.47e+04,3.59e+03,5.34e+01,-1.16e+04,-2.42e+03,-1.10e+03,2.46e+04
5521,7.61e+02,5.53e+02,-8.71e+02,-1.26e+04,-2.27e+02,1.06e+03,2.19e+04
5522,1.23e+04,-8.74e+02,-1.59e+03,-1.55e+04,6.90e+02,-2.19e+03,3.03e+04
5523,1.36e+04,-3.42e+02,1.84e+03,-1.02e+04,-4.92e+02,1.36e+03,2.20e+04
5524,-9.22e+02,-6.19e+02,1.23e+03,-1.15e+04,2.10e+02,-1.76e+03,2.03e+04
5525,4.58e+03,-1.87e+03,7.68e+02,-1.27e+04,1.77e+03,-3.01e+01,2.28e+04
5526,3.62e+03,-4.64e+03,-2.46e+03,-1.56e+04,-1.11e+02,1.36e+03,2.81e+04
5527,-5.78e+03,-2.70e+03,-8.48e+02,-1.53e+04,9.50e+02,-1.76e+03,2.71e+04
5528,-1.14e+03,-1.32e+04,9.70e+00,-1.14e+04,-2.91e+03,-1.38e+03,2.41e+04
5529,2.36e+03,-1.54e+04,1.23e+03,-1.73e+04,3.09e+03,-2.43e+03,3.52e+04
5530,-2.44e+02,-4.85e+03,-1.49e+03,-1.43e+04,-7.75e+02,2.66e+02,2.52e+04
5531,-7.71e+02,-1.31e+04,1.68e+02,-8.81e+03,-3.32e+03,-1.38e+03,2.09e+04
5532,-6.34e+03,-1.91e+04,-2.50e+03,-2.77e+04,4.14e+03,-2.43e+03,5.09e+04
5533,4.61e+03,-5.33e+04,-3.13e+03,-1.81e+04,-6.37e+03,-5.01e+03,6.44e+04
5534,-1.05e+04,-6.89e+04,-1.16e+04,-1.46e+04,3.74e+03,-2.01e+03,6.36e+04
5535,-1.11e+04,-4.65e+04,-6.03e+03,-1.95e+04,1.45e+01,-9.68e+03,5.37e+04
5536,1.09e+05,3.16e+04,3.28e+04,-2.23e+04,-8.25e+03,6.47e+03,8.82e+04
5537,3.04e+05,1.05e+05,1.11e+05,-5.34e+04,-5.29e+04,2.14e+03,2.36e+05
5538,1.88e+05,4.88e+03,1.60e+04,-5.82e+03,-1.95e+04,8.04e+03,1.82e+05
5539,1.09e+05,9.26e+03,6.56e+03,-4.54e+02,-1.07e+04,-8.98e+03,1.04e+05
5540,1.43e+05,2.50e+04,1.54e+04,-1.16e+04,-3.08e+03,-7.71e+03,1.25e+05
5541,1.77e+05,-1.95e+02,1.09e+04,-1.58e+04,-1.25e+04,8.04e+03,1.76e+05
5542,1.02e+05,6.49e+03,3.79e+03,-2.18e+04,-2.99e+03,-8.98e+03,1.06e+05
5543,1.04e+05,8.51e+02,2.18e+03,5.49e+02,-4.15e+03,8.54e+03,1.03e+05
5544,1.97e+05,6.39e+03,1.52e+04,-2.68e+02,-7.50e+03,-8.06e+03,1.87e+05
5545,1.54e+05,5.13e+03,1.27e+04,-1.11e+04,-1.90e+04,9.04e+02,1.50e+05
5546,9.92e+04,-1.01e+03,3.25e+02,-1.54e+04,-9.07e+02,8.54e+03,1.04e+05
5547,1.72e+05,-4.24e+03,4.60e+03,-1.39e+04,-3.89e+03,-8.06e+03,1.75e+05
5548,1.70e+05,1.53e+03,4.68e+03,2.36e+03,-1.95e+03,7.73e+03,1.67e+05
5549,9.92e+04,1.57e+03,2.41e+03,2.67e+03,-9.04e+02,-7.98e+03,9.83e+04
5550,1.34e+05,1.61e+02,8.35e+02,-6.24e+03,7.92e+03,9.06e+02,1.35e+05
5551,1.58e+05,-3.39e+03,-2.42e+02,-1.32e+04,1.12e+03,7.73e+03,1.62e+05
5552,9.31e+04,-1.06e+03,-2.22e+02,-1.41e+04,5.13e+02,-7.98e+03,9.79e+04
5553,9.48e+04,1.98e+03,2.13e+03,2.11e+03,1.22e+02,7.10e+03,9.36e+04
5554,1.57e+05,1.15e+03,7.11e+03,1.25e+03,1.92e+03,-6.26e+03,1.54e+05
5555,1.26e+05,1.14e+02,5.84e+02,-5.63e+03,-7.79e+03,-9.73e+02,1.27e+05
5556,8.84e+04,-7.23e+02,-5.73e+02,-1.29e+04,4.67e+02,7.10e+03,9.27e+04
5557,1.48e+05,-3.11e+03,2.84e+03,-1.28e+04,-5.77e+02,-6.26e+03,1.50e+05
5558,1.47e+05,1.52e+03,2.94e+03,1.79e+03,6.50e+02,6.64e+03,1.45e+05
5559,8.73e+04,1.34e+03,1.73e+03,1.04e+03,3.45e+02,-6.74e+03,8.65e+04
5560,1.17e+05,-8.91e+02,1.04e+03,-6.07e+03,8.25e+03,9.08e+02,1.18e+05
5561,1.36e+05,-2.91e+03,-1.49e+03,-1.21e+04,1.48e+03,6.64e+03,1.41e+05
5562,8.14e+04,-1.16e+03,-7.74e+02,-1.33e+04,5.77e+02,-6.74e+03,8.64e+04
5563,8.19e+04,1.98e+03,1.89e+03,1.25e+03,4.27e+02,6.27e+03,8.07e+04
5564,1.36e+05,1.29e+03,6.00e+03,-2.15e+02,2.56e+03,-5.34e+03,1.33e+05
5565,1.09e+05,7.02e+02,-4.93e+02,-5.84e+03,-6.10e+03,-9.61e+02,1.10e+05
5566,7.55e+04,-7.51e+02,-8.44e+02,-1.17e+04,3.34e+02,6.27e+03,7.97e+04
5567,1.26e+05,-2.93e+03,1.78e+03,-1.22e+04,-2.66e+02,-5.34e+03,1.29e+05
5568,1.25e+05,1.64e+03,2.66e+03,7.39e+02,9.19e+02,5.61e+03,1.23e+05
5569,7.50e+04,1.44e+03,1.68e+03,-3.44e+02,4.01e+02,-5.59e+03,7.40e+04
5570,9.98e+04,-1.21e+03,9.80e+02,-6.09e+03,7.15e+03,1.04e+03,1.01e+05
5571,1.15e+05,-2.74e+03,-1.71e+03,-1.10e+04,1.37e+03,5.61e+03,1.19e+05
5572,6.88e+04,-1.19e+03,-9.57e+02,-1.23e+04,4.66e+02,-5.59e+03,7.37e+04
5573,6.88e+04,1.89e+03,1.80e+03,1.89e+02,3.96e+02,5.28e+03,6.76e+04
5574,1.15e+05,1.48e+03,5.34e+03,-1.35e+03,2.39e+03,-4.45e+03,1.12e+05
5575,9.18e+04,9.13e+02,-6.31e+02,-5.96e+03,-5.00e+03,-9.40e+02,9.27e+04
5576,6.24e+04,-8.51e+02,-9.39e+02,-1.06e+04,2.88e+02,5.28e+03,6.66e+04
5577,1.05e+05,-2.81e+03,1.05e+03,-1.13e+04,-4.72e+01,-4.45e+03,1.08e+05
5578,1.03e+05,1.75e+03,2.55e+03,-3.33e+02,9.77e+02,4.59e+03,1.01e+05
5579,6.21e+04,1.46e+03,1.62e+03,-1.51e+03,3.87e+02,-4.54e+03,6.11e+04
5580,8.24e+04,-1.25e+03,9.42e+02,-6.08e+03,6.01e+03,1.07e+03,8.39e+04
5581,9.29e+04,-2.62e+03,-1.82e+03,-9.93e+03,1.31e+03,4.59e+03,9.70e+04
5582,5.58e+04,-1.21e+03,-1.05e+03,-1.13e+04,4.25e+02,-4.54e+03,6.07e+04
5583,5.57e+04,1.81e+03,1.70e+03,-8.97e+02,3.78e+02,4.23e+03,5.45e+04
5584,9.27e+04,1.65e+03,4.68e+03,-2.35e+03,2.14e+03,-3.55e+03,9.00e+04
5585,7.44e+04,9.85e+02,-6.81e+02,-5.98e+03,-3.91e+03,-9.45e+02,7.53e+04
5586,4.93e+04,-9.27e+02,-1.04e+03,-9.51e+03,2.76e+02,4.23e+03,5.34e+04
5587,8.27e+04,-2.65e+03,3.85e+02,-1.02e+04,1.50e+02,-3.55e+03,8.60e+04
5588,8.13e+04,1.87e+03,2.40e+03,-1.35e+03,9.83e+02,3.58e+03,7.95e+04
5589,4.90e+04,1.52e+03,1.52e+03,-2.55e+03,3.51e+02,-3.54e+03,4.81e+04
5590,6.50e+04,-1.19e+03,8.64e+02,-6.02e+03,4.88e+03,1.06e+03,6.66e+04
5591,7.13e+04,-2.43e+03,-1.90e+03,-8.74e+03,1.19e+03,3.58e+03,7.53e+04
5592,4.27e+04,-1.17e+03,-1.17e+03,-1.00e+04,3.52e+02,-3.54e+03,4.76e+04
5593,4.26e+04,1.83e+03,1.52e+03,-1.83e+03,3.14e+02,3.18e+03,4.14e+04
5594,7.09e+04,1.84e+03,3.98e+03,-3.14e+03,1.78e+03,-2.70e+03,6.85e+04
5595,5.70e+04,1.08e+03,-7.19e+02,-5.83e+03,-2.92e+03,-9.60e+02,5.80e+04
5596,3.62e+04,-8.92e+02,-1.21e+03,-8.15e+03,2.20e+02,3.18e+03,4.02e+04
5597,6.12e+04,-2.34e+03,-2.04e+02,-8.88e+03,2.05e+02,-2.70e+03,6.45e+04
5598,6.03e+04,1.95e+03,2.12e+03,-1.97e+03,7.64e+02,2.73e+03,5.86e+04
5599,3.55e+04,1.82e+03,1.41e+03,-3.12e+03,1.49e+02,-2.77e+03,3.46e+04
5600,4.78e+04,-9.43e+02,6.59e+02,-5.65e+03,3.71e+03,1.01e+03,4.94e+04
5601,5.14e+04,-1.88e+03,-1.71e+03,-7.08e+03,9.59e+02,2.73e+03,5.48e+04
5602,2.88e+04,-1.04e+03,-1.44e+03,-8.32e+03,2.11e+02,-2.77e+03,3.37e+04
5603,2.93e+04,2.07e+03,1.34e+03,-1.86e+03,2.29e+01,2.18e+03,2.80e+04
5604,5.04e+04,1.94e+03,3.42e+03,-3.10e+03,1.28e+03,-2.16e+03,4.82e+04
5605,4.02e+04,1.43e+03,-6.27e+02,-4.91e+03,-2.35e+03,-1.03e+03,4.10e+04
5606,2.27e+04,-7.54e+02,-1.49e+03,-6.05e+03,1.74e+02,2.18e+03,2.63e+04
5607,4.22e+04,-1.55e+03,-7.16e+01,-6.91e+03,3.46e+02,-2.16e+03,4.48e+04
5608,4.30e+04,1.29e+03,2.19e+03,-1.12e+03,1.49e+02,2.41e+03,4.16e+04
5609,2.03e+04,2.22e+03,1.74e+03,-1.98e+03,-2.04e+02,-2.96e+03,1.94e+04
5610,3.16e+04,-7.22e+02,6.62e+02,-4.26e+03,3.04e+03,7.19e+02,3.29e+04
5611,3.81e+04,-8.10e+02,8.67e+01,-4.70e+03,1.63e+03,2.41e+03,3.97e+04
5612,1.22e+04,-1.28e+03,-1.76e+03,-6.59e+03,6.90e+02,-2.96e+03,1.86e+04
5613,1.45e+04,1.76e+03,2.74e+03,1.21e+03,-4.92e+02,1.48e+03,1.28e+04
5614,3.57e+04,3.41e+01,5.35e+03,-1.85e+03,2.31e+03,-3.17e+03,3.42e+04
5615,2.56e+04,2.76e+03,2.10e+02,-2.48e+03,-2.36e+03,-1.48e+03,2.50e+04
5616,4.53e+03,-2.53e+03,-1.56e+03,-4.25e+03,-1.11e+02,1.48e+03,1.02e+04
5617,3.10e+04,-2.00e+03,3.32e+03,-9.93e+03,4.58e+03,-3.17e+03,3.65e+04
5618,3.71e+04,-5.69e+03,1.19e+04,5.99e+01,-2.88e+02,2.11e+03,3.74e+04
5619,4.97e+03,-9.27e+03,3.84e+03,-1.11e+03,3.09e+03,-2.17e+03,1.53e+04
5620,1.68e+04,-7.23e+03,6.00e+03,-4.20e+03,6.24e+03,-5.76e+02,2.46e+04
5621,2.24e+04,-1.20e+04,5.65e+03,-2.20e+04,3.03e+02,2.11e+03,4.85e+04
5622,-3.73e+03,-1.30e+04,1.15e+02,-1.15e+04,4.14e+03,-2.17e+03,2.45e+04
5623,-2.82e+03,-7.06e+04,-1.06e+04,-2.63e+03,-6.37e+03,-4.54e+03,6.59e+04
5624,1.67e+04,-1.71e+05,-1.08e+03,-5.09e+04,3.37e+04,-3.36e+04,2.16e+05
5625,5.51e+03,-3.22e+04,-2.92e+03,-1.39e+04,-1.79e+03,5.94e+03,4.32e+04
