Element ID,stress_x,stress_y,stress_z,stress_xy,stress_xz,stress_yz,von_mises
1,-1.23e+03,-3.78e+02,-4.14e+02,-3.57e+02,-6.13e+02,8.91e+00,1.49e+03
2,-4.11e+02,7.97e+00,-7.19e+01,-1.24e+02,-2.80e+02,-6.15e+00,6.56e+02
3,-7.56e+01,4.47e+01,-2.14e+01,-1.62e+01,-5.16e+01,-4.43e+01,1.60e+02
4,-8.28e+02,-3.33e+02,-3.04e+02,-3.77e+02,-5.95e+02,-4.75e+01,1.32e+03
5,-3.27e+02,-7.07e+01,-1.02e+02,-2.74e+02,-2.60e+02,-1.31e+02,7.33e+02
6,-6.31e+01,1.37e+02,-3.91e+00,-9.32e+01,-3.19e+01,-1.97e+02,4.21e+02
7,-7.24e+02,-2.48e+02,-3.22e+02,-3.54e+02,-6.86e+02,-8.87e+01,1.42e+03
8,-1.71e+02,1.22e+02,-1.52e+02,-2.56e+02,-2.88e+02,-2.19e+02,8.17e+02
9,-1.23e+01,3.50e+02,-6.24e+01,-1.05e+02,-2.31e+01,-2.90e+02,6.62e+02
10,-6.49e+02,-1.18e+02,-3.66e+02,-2.37e+02,-8.13e+02,-9.14e+01,1.54e+03
11,-6.32e+01,4.15e+02,-2.42e+02,-1.55e+02,-3.13e+02,-2.13e+02,9.21e+02
12,4.61e+01,6.71e+02,-1.19e+02,-5.49e+01,-6.17e-01,-2.58e+02,8.55e+02
13,-5.53e+02,7.83e-01,-3.93e+02,-1.41e+01,-8.71e+02,-4.58e+01,1.59e+03
14,4.51e+01,6.61e+02,-3.09e+02,1.52e+00,-3.03e+02,-9.49e+01,1.01e+03
15,8.26e+01,9.30e+02,-1.61e+02,9.31e+00,2.74e+01,-8.46e+01,1.00e+03
16,-4.07e+02,6.81e+01,-3.49e+02,2.62e+02,-7.61e+02,3.69e+01,1.47e+03
17,1.11e+02,6.96e+02,-2.99e+02,1.67e+02,-2.42e+02,1.07e+02,1.02e+03
18,8.85e+01,9.38e+02,-1.57e+02,6.55e+01,4.29e+01,1.86e+02,1.05e+03
19,-2.12e+02,6.38e+01,-2.06e+02,4.90e+02,-4.48e+02,1.18e+02,1.20e+03
20,8.68e+01,4.48e+02,-1.87e+02,2.91e+02,-1.34e+02,2.98e+02,9.37e+02
21,6.00e+01,5.91e+02,-9.74e+01,1.01e+02,3.24e+01,4.35e+02,9.96e+02
22,2.14e-03,5.51e-04,8.85e-04,5.78e+02,1.81e-03,1.52e+02,1.03e+03
23,6.78e-04,-5.50e-04,4.97e-04,3.36e+02,8.97e-04,3.76e+02,8.74e+02
24,2.23e-05,-9.60e-04,3.99e-04,1.12e+02,1.60e-04,5.34e+02,9.45e+02
25,2.12e+02,-6.38e+01,2.06e+02,4.90e+02,4.48e+02,1.18e+02,1.20e+03
26,-8.68e+01,-4.48e+02,1.87e+02,2.91e+02,1.34e+02,2.98e+02,9.37e+02
27,-6.00e+01,-5.91e+02,9.74e+01,1.01e+02,-3.24e+01,4.35e+02,9.96e+02
28,4.07e+02,-6.81e+01,3.49e+02,2.62e+02,7.61e+02,3.69e+01,1.47e+03
29,-1.11e+02,-6.96e+02,2.99e+02,1.67e+02,2.42e+02,1.07e+02,1.02e+03
30,-8.85e+01,-9.38e+02,1.57e+02,6.55e+01,-4.29e+01,1.86e+02,1.05e+03
31,5.53e+02,-7.82e-01,3.93e+02,-1.41e+01,8.71e+02,-4.58e+01,1.59e+03
32,-4.51e+01,-6.61e+02,3.09e+02,1.52e+00,3.03e+02,-9.49e+01,1.01e+03
33,-8.26e+01,-9.30e+02,1.61e+02,9.31e+00,-2.74e+01,-8.46e+01,1.00e+03
34,6.49e+02,1.18e+02,3.66e+02,-2.37e+02,8.13e+02,-9.14e+01,1.54e+03
35,6.32e+01,-4.15e+02,2.42e+02,-1.55e+02,3.13e+02,-2.13e+02,9.21e+02
36,-4.61e+01,-6.71e+02,1.19e+02,-5.49e+01,6.17e-01,-2.58e+02,8.55e+02
37,7.24e+02,2.48e+02,3.22e+02,-3.54e+02,6.86e+02,-8.87e+01,1.42e+03
38,1.71e+02,-1.22e+02,1.52e+02,-2.56e+02,2.88e+02,-2.19e+02,8.17e+02
39,1.23e+01,-3.50e+02,6.24e+01,-1.05e+02,2.31e+01,-2.90e+02,6.62e+02
40,8.28e+02,3.33e+02,3.04e+02,-3.77e+02,5.95e+02,-4.75e+01,1.32e+03
41,3.27e+02,7.07e+01,1.02e+02,-2.74e+02,2.60e+02,-1.31e+02,7.33e+02
42,6.31e+01,-1.37e+02,3.91e+00,-9.32e+01,3.19e+01,-1.97e+02,4.21e+02
43,1.23e+03,3.78e+02,4.14e+02,-3.57e+02,6.13e+02,8.91e+00,1.49e+03
44,4.11e+02,-7.97e+00,7.19e+01,-1.24e+02,2.80e+02,-6.15e+00,6.56e+02
45,7.56e+01,-4.47e+01,2.14e+01,-1.62e+01,5.16e+01,-4.43e+01,1.60e+02
46,-7.49e+02,-2.60e+02,-4.07e+02,-4.53e+02,-7.64e+02,-4.49e+01,1.60e+03
47,-3.30e+02,-6.34e+01,-3.08e+02,-1.83e+02,-5.61e+02,-1.30e+02,1.08e+03
48,-7.57e+01,4.28e+01,-9.42e+01,-1.74e+01,-2.03e+02,-2.13e+02,5.27e+02
49,-2.26e+02,-1.90e+02,-2.64e+02,-5.29e+02,-7.63e+02,-1.63e+02,1.63e+03
50,-1.82e+02,-1.71e+02,-3.46e+02,-3.39e+02,-4.98e+02,-4.10e+02,1.27e+03
51,-4.75e+01,1.15e+02,-7.52e+01,-8.92e+01,-1.41e+02,-5.37e+02,9.90e+02
52,-1.46e+02,-1.58e+02,-4.07e+02,-5.59e+02,-9.86e+02,-2.76e+02,2.04e+03
53,-3.69e+01,-8.49e+01,-6.28e+02,-3.09e+02,-5.58e+02,-6.44e+02,1.67e+03
54,7.17e+00,2.53e+02,-2.70e+02,-6.43e+01,-1.01e+02,-7.18e+02,1.34e+03
55,-1.70e+02,-9.90e+01,-6.99e+02,-4.88e+02,-1.33e+03,-3.14e+02,2.58e+03
56,5.47e+01,1.60e+02,-1.10e+03,-2.03e+02,-6.13e+02,-6.75e+02,2.02e+03
57,3.17e+01,5.29e+02,-5.17e+02,-3.07e+00,-1.70e+01,-6.63e+02,1.46e+03
58,-1.74e+02,1.97e+01,-9.65e+02,-2.41e+02,-1.57e+03,-1.80e+02,2.91e+03
59,8.81e+01,4.27e+02,-1.55e+03,-8.64e+01,-5.89e+02,-3.55e+02,2.19e+03
60,1.34e+02,8.84e+02,-6.85e+02,1.81e+01,9.71e+01,-2.83e+02,1.46e+03
61,-1.28e+02,1.15e+02,-9.79e+02,1.21e+02,-1.46e+03,1.14e+02,2.73e+03
62,7.17e+01,5.43e+02,-1.61e+03,-1.90e+00,-4.65e+02,2.77e+02,2.17e+03
63,2.05e+02,9.57e+02,-6.70e+02,-4.08e+01,1.70e+02,3.59e+02,1.57e+03
64,-7.82e+01,9.11e+01,-6.37e+02,4.57e+02,-8.97e+02,4.23e+02,2.00e+03
65,6.40e+01,3.88e+02,-1.03e+03,3.68e+01,-2.50e+02,9.11e+02,2.08e+03
66,1.32e+02,6.44e+02,-4.06e+02,-1.30e+02,1.34e+02,9.39e+02,1.89e+03
67,1.24e-03,4.78e-04,1.22e-03,5.97e+02,2.58e-03,5.53e+02,1.41e+03
68,7.66e-04,1.84e-04,2.06e-03,4.62e+01,1.98e-03,1.18e+03,2.04e+03
69,1.76e-04,-1.68e-04,2.03e-03,-1.72e+02,7.39e-04,1.18e+03,2.06e+03
70,7.82e+01,-9.11e+01,6.37e+02,4.57e+02,8.97e+02,4.23e+02,2.00e+03
71,-6.40e+01,-3.88e+02,1.03e+03,3.68e+01,2.50e+02,9.11e+02,2.08e+03
72,-1.32e+02,-6.44e+02,4.06e+02,-1.30e+02,-1.34e+02,9.39e+02,1.89e+03
73,1.28e+02,-1.15e+02,9.79e+02,1.21e+02,1.46e+03,1.14e+02,2.73e+03
74,-7.17e+01,-5.43e+02,1.61e+03,-1.90e+00,4.65e+02,2.77e+02,2.17e+03
75,-2.05e+02,-9.57e+02,6.70e+02,-4.08e+01,-1.70e+02,3.59e+02,1.57e+03
76,1.74e+02,-1.97e+01,9.65e+02,-2.41e+02,1.57e+03,-1.80e+02,2.91e+03
77,-8.81e+01,-4.27e+02,1.55e+03,-8.64e+01,5.89e+02,-3.55e+02,2.19e+03
78,-1.34e+02,-8.84e+02,6.85e+02,1.81e+01,-9.71e+01,-2.83e+02,1.46e+03
79,1.70e+02,9.90e+01,6.99e+02,-4.88e+02,1.33e+03,-3.14e+02,2.58e+03
80,-5.47e+01,-1.60e+02,1.10e+03,-2.03e+02,6.13e+02,-6.75e+02,2.02e+03
81,-3.17e+01,-5.29e+02,5.17e+02,-3.07e+00,1.70e+01,-6.63e+02,1.46e+03
82,1.46e+02,1.58e+02,4.07e+02,-5.59e+02,9.86e+02,-2.76e+02,2.04e+03
83,3.69e+01,8.49e+01,6.28e+02,-3.09e+02,5.58e+02,-6.44e+02,1.67e+03
84,-7.17e+00,-2.53e+02,2.70e+02,-6.43e+01,1.01e+02,-7.18e+02,1.34e+03
85,2.26e+02,1.90e+02,2.64e+02,-5.29e+02,7.63e+02,-1.63e+02,1.63e+03
86,1.82e+02,1.71e+02,3.46e+02,-3.39e+02,4.98e+02,-4.10e+02,1.27e+03
87,4.75e+01,-1.15e+02,7.52e+01,-8.92e+01,1.41e+02,-5.37e+02,9.90e+02
88,7.49e+02,2.60e+02,4.07e+02,-4.53e+02,7.64e+02,-4.49e+01,1.60e+03
89,3.30e+02,6.34e+01,3.08e+02,-1.83e+02,5.61e+02,-1.30e+02,1.08e+03
90,7.57e+01,-4.28e+01,9.42e+01,-1.74e+01,2.03e+02,-2.13e+02,5.27e+02
91,-8.18e+02,-3.42e+02,-4.36e+02,-6.80e+02,-8.72e+02,-9.71e+01,1.97e+03
92,-1.99e+02,-1.20e+02,-2.57e+02,-2.66e+02,-6.17e+02,-2.52e+02,1.25e+03
93,-2.90e+01,-1.21e+01,-8.49e+01,-1.22e+01,-2.45e+02,-3.68e+02,7.69e+02
94,-1.84e+02,-3.64e+02,-3.21e+02,-9.09e+02,-9.15e+02,-3.14e+02,2.31e+03
95,-5.11e+01,-4.69e+02,-4.36e+02,-5.07e+02,-5.21e+02,-7.40e+02,1.84e+03
96,-6.67e-01,-3.64e+01,-1.34e+02,-8.21e+01,-1.23e+02,-8.51e+02,1.50e+03
97,-3.79e+02,-5.31e+02,-7.27e+02,-1.15e+03,-1.39e+03,-5.70e+02,3.30e+03
98,-2.19e+01,-5.80e+02,-1.04e+03,-5.57e+02,-6.66e+02,-1.24e+03,2.77e+03
99,-3.70e+01,-1.27e+01,-5.25e+02,-8.44e+01,-9.32e+01,-1.17e+03,2.10e+03
100,-1.03e+03,-6.59e+02,-1.58e+03,-1.24e+03,-2.26e+03,-7.57e+02,4.73e+03
101,-3.65e+02,-4.46e+02,-2.41e+03,-5.55e+02,-1.02e+03,-1.61e+03,3.99e+03
102,6.94e+01,4.59e+02,-1.07e+03,5.77e+01,4.26e+01,-1.24e+03,2.55e+03
103,-1.95e+03,-7.11e+02,-2.80e+03,-8.60e+02,-3.24e+03,-5.96e+02,6.18e+03
104,-3.67e+02,3.19e+02,-3.90e+03,-3.48e+02,-1.22e+03,-1.16e+03,4.92e+03
105,-2.10e+02,9.50e+02,-1.67e+03,3.02e+01,2.74e+02,-7.38e+02,2.65e+03
106,-2.36e+03,-6.19e+02,-3.32e+03,5.99e+01,-3.46e+03,1.71e+02,6.45e+03
107,-1.47e+02,9.23e+02,-4.31e+03,-1.47e+02,-1.09e+03,3.54e+02,5.19e+03
108,-4.84e+02,1.31e+03,-1.70e+03,-1.57e+02,4.04e+02,3.05e+02,2.78e+03
109,-1.61e+03,-3.57e+02,-2.21e+03,1.04e+03,-2.24e+03,1.00e+03,4.89e+03
110,-1.46e+02,6.83e+02,-2.88e+03,5.81e+01,-7.03e+02,1.97e+03,4.86e+03
111,-3.04e+02,7.93e+02,-1.06e+03,-3.89e+02,3.19e+02,1.30e+03,2.91e+03
112,2.13e-03,1.01e-03,1.73e-03,1.45e+03,3.36e-03,1.33e+03,3.40e+03
113,1.58e-03,1.14e-03,3.71e-03,1.73e+02,3.18e-03,2.62e+03,4.56e+03
114,1.42e-04,9.34e-04,5.11e-03,-4.69e+02,1.48e-03,1.63e+03,2.94e+03
115,1.61e+03,3.57e+02,2.21e+03,1.04e+03,2.24e+03,1.00e+03,4.89e+03
116,1.46e+02,-6.83e+02,2.88e+03,5.81e+01,7.03e+02,1.97e+03,4.86e+03
117,3.04e+02,-7.93e+02,1.06e+03,-3.89e+02,-3.19e+02,1.30e+03,2.91e+03
118,2.36e+03,6.19e+02,3.32e+03,5.99e+01,3.46e+03,1.71e+02,6.45e+03
119,1.47e+02,-9.23e+02,4.31e+03,-1.47e+02,1.09e+03,3.54e+02,5.19e+03
120,4.84e+02,-1.31e+03,1.70e+03,-1.57e+02,-4.04e+02,3.05e+02,2.78e+03
121,1.95e+03,7.11e+02,2.80e+03,-8.60e+02,3.24e+03,-5.96e+02,6.18e+03
122,3.67e+02,-3.19e+02,3.90e+03,-3.48e+02,1.22e+03,-1.16e+03,4.92e+03
123,2.10e+02,-9.50e+02,1.67e+03,3.02e+01,-2.74e+02,-7.38e+02,2.65e+03
124,1.03e+03,6.59e+02,1.58e+03,-1.24e+03,2.26e+03,-7.57e+02,4.73e+03
125,3.65e+02,4.46e+02,2.41e+03,-5.55e+02,1.02e+03,-1.61e+03,3.99e+03
126,-6.94e+01,-4.59e+02,1.07e+03,5.77e+01,-4.26e+01,-1.24e+03,2.55e+03
127,3.79e+02,5.31e+02,7.27e+02,-1.15e+03,1.39e+03,-5.70e+02,3.30e+03
128,2.19e+01,5.80e+02,1.04e+03,-5.57e+02,6.66e+02,-1.24e+03,2.77e+03
129,3.70e+01,1.27e+01,5.25e+02,-8.44e+01,9.32e+01,-1.17e+03,2.10e+03
130,1.84e+02,3.64e+02,3.21e+02,-9.09e+02,9.15e+02,-3.14e+02,2.31e+03
131,5.11e+01,4.69e+02,4.36e+02,-5.07e+02,5.21e+02,-7.40e+02,1.84e+03
132,6.67e-01,3.64e+01,1.34e+02,-8.21e+01,1.23e+02,-8.51e+02,1.50e+03
133,8.18e+02,3.42e+02,4.36e+02,-6.80e+02,8.72e+02,-9.71e+01,1.97e+03
134,1.99e+02,1.20e+02,2.57e+02,-2.66e+02,6.17e+02,-2.52e+02,1.25e+03
135,2.90e+01,1.21e+01,8.49e+01,-1.22e+01,2.45e+02,-3.68e+02,7.69e+02
136,-9.76e+02,-4.87e+02,-4.32e+02,-1.02e+03,-9.16e+02,-1.37e+02,2.44e+03
137,-1.48e+02,-2.44e+02,-5.75e+01,-3.68e+02,-6.03e+02,-3.38e+02,1.37e+03
138,1.98e+01,-5.77e+01,1.35e+02,1.33e+01,-2.16e+02,-4.62e+02,8.99e+02
139,-2.72e+02,-7.49e+02,-3.81e+02,-1.53e+03,-1.03e+03,-4.68e+02,3.32e+03
140,7.04e+00,-1.04e+03,-3.83e+02,-7.13e+02,-4.68e+02,-1.04e+03,2.50e+03
141,1.40e+01,-2.26e+02,3.14e+00,-1.65e+01,-3.86e+01,-1.08e+03,1.89e+03
142,-1.17e+03,-1.43e+03,-1.15e+03,-2.30e+03,-1.84e+03,-9.56e+02,5.36e+03
143,-4.46e+02,-1.92e+03,-1.39e+03,-1.09e+03,-7.70e+02,-2.04e+03,4.42e+03
144,4.15e+01,-3.93e+02,-3.42e+02,-9.17e+00,8.44e+01,-1.60e+03,2.81e+03
145,-3.92e+03,-2.28e+03,-3.01e+03,-3.03e+03,-3.63e+03,-1.54e+03,8.73e+03
146,-2.35e+03,-2.12e+03,-3.65e+03,-1.84e+03,-1.98e+03,-3.25e+03,7.46e+03
147,-1.31e+03,-8.31e+02,-2.02e+03,-7.49e+02,-6.22e+02,-2.33e+03,4.49e+03
148,-8.09e+03,-2.61e+03,-5.50e+03,-2.60e+03,-6.10e+03,-1.42e+03,1.27e+04
149,-5.92e+03,-1.50e+03,-8.56e+03,-2.26e+03,-4.89e+03,-3.55e+03,1.28e+04
150,4.61e+02,1.51e+03,-3.99e+03,-1.30e+02,-7.53e+02,-2.31e+03,6.58e+03
151,-1.01e+04,-2.30e+03,-6.45e+03,-5.73e+01,-7.01e+03,1.93e+02,1.39e+04
152,-8.04e+03,-3.85e+02,-1.14e+04,-6.67e+02,-6.76e+03,1.73e+02,1.53e+04
153,2.45e+03,2.25e+03,-4.82e+03,-4.22e+02,-2.88e+02,1.02e+02,7.23e+03
154,-6.92e+03,-1.39e+03,-4.31e+03,2.78e+03,-4.63e+03,1.95e+03,1.10e+04
155,-5.64e+03,2.62e+01,-7.48e+03,1.30e+03,-4.57e+03,4.04e+03,1.28e+04
156,1.25e+03,1.63e+03,-2.94e+03,-2.20e+02,-4.50e+02,1.76e+03,5.42e+03
157,3.12e-03,1.90e-03,1.94e-03,3.94e+03,3.86e-03,2.63e+03,8.20e+03
158,2.48e-03,3.32e-03,3.88e-03,2.01e+03,4.06e-03,5.38e+03,9.95e+03
159,2.62e-03,4.99e-03,1.01e-02,2.79e+01,3.75e-03,2.32e+03,4.02e+03
160,6.92e+03,1.39e+03,4.31e+03,2.78e+03,4.63e+03,1.95e+03,1.10e+04
161,5.64e+03,-2.62e+01,7.48e+03,1.30e+03,4.57e+03,4.04e+03,1.28e+04
162,-1.25e+03,-1.63e+03,2.94e+03,-2.20e+02,4.50e+02,1.76e+03,5.42e+03
163,1.01e+04,2.30e+03,6.45e+03,-5.73e+01,7.01e+03,1.93e+02,1.39e+04
164,8.04e+03,3.85e+02,1.14e+04,-6.67e+02,6.76e+03,1.73e+02,1.53e+04
165,-2.45e+03,-2.25e+03,4.82e+03,-4.22e+02,2.88e+02,1.02e+02,7.23e+03
166,8.09e+03,2.61e+03,5.50e+03,-2.60e+03,6.10e+03,-1.42e+03,1.27e+04
167,5.92e+03,1.50e+03,8.56e+03,-2.26e+03,4.89e+03,-3.55e+03,1.28e+04
168,-4.61e+02,-1.51e+03,3.99e+03,-1.30e+02,7.53e+02,-2.31e+03,6.58e+03
169,3.92e+03,2.28e+03,3.01e+03,-3.03e+03,3.63e+03,-1.54e+03,8.73e+03
170,2.35e+03,2.12e+03,3.65e+03,-1.84e+03,1.98e+03,-3.25e+03,7.46e+03
171,1.31e+03,8.31e+02,2.02e+03,-7.49e+02,6.22e+02,-2.33e+03,4.49e+03
172,1.17e+03,1.43e+03,1.15e+03,-2.30e+03,1.84e+03,-9.56e+02,5.36e+03
173,4.46e+02,1.92e+03,1.39e+03,-1.09e+03,7.70e+02,-2.04e+03,4.42e+03
174,-4.15e+01,3.93e+02,3.42e+02,-9.17e+00,-8.44e+01,-1.60e+03,2.81e+03
175,2.72e+02,7.49e+02,3.81e+02,-1.53e+03,1.03e+03,-4.68e+02,3.32e+03
176,-7.05e+00,1.04e+03,3.83e+02,-7.13e+02,4.68e+02,-1.04e+03,2.50e+03
177,-1.40e+01,2.26e+02,-3.14e+00,-1.65e+01,3.86e+01,-1.08e+03,1.89e+03
178,9.76e+02,4.87e+02,4.32e+02,-1.02e+03,9.16e+02,-1.37e+02,2.44e+03
179,1.48e+02,2.44e+02,5.75e+01,-3.68e+02,6.03e+02,-3.38e+02,1.37e+03
180,-1.98e+01,5.77e+01,-1.35e+02,1.33e+01,2.16e+02,-4.62e+02,8.99e+02
181,-1.15e+03,-6.67e+02,-4.06e+02,-1.42e+03,-8.46e+02,-1.50e+02,2.94e+03
182,-6.00e+01,-3.96e+02,2.43e+02,-4.66e+02,-5.23e+02,-3.60e+02,1.47e+03
183,6.58e+01,-1.05e+02,5.03e+02,5.95e+01,-1.70e+02,-4.69e+02,1.03e+03
184,-3.73e+02,-1.28e+03,-3.84e+02,-2.30e+03,-1.00e+03,-5.35e+02,4.53e+03
185,3.60e+01,-1.84e+03,-2.15e+02,-9.07e+02,-3.76e+02,-1.15e+03,3.16e+03
186,1.19e+02,-4.02e+02,4.17e+02,1.20e+02,3.98e+01,-1.12e+03,2.09e+03
187,-2.61e+03,-3.11e+03,-1.67e+03,-4.04e+03,-2.04e+03,-1.24e+03,8.23e+03
188,-7.06e+02,-3.98e+03,-1.17e+03,-1.69e+03,-6.94e+02,-2.50e+03,6.17e+03
189,-2.71e+02,-9.93e+02,4.32e+01,2.11e+02,1.83e+02,-1.76e+03,3.22e+03
190,-9.45e+03,-5.14e+03,-4.53e+03,-6.22e+03,-4.61e+03,-2.18e+03,1.47e+04
191,-7.03e+03,-7.14e+03,-4.68e+03,-5.40e+03,-3.09e+03,-5.14e+03,1.42e+04
192,-8.49e+01,-2.76e+03,-2.93e+02,-1.34e+03,-7.49e+01,-3.21e+03,6.55e+03
193,-2.03e+04,-5.95e+03,-8.36e+03,-5.85e+03,-8.29e+03,-2.07e+03,2.23e+04
194,-2.14e+04,-4.02e+03,-9.20e+03,-8.91e+03,-1.01e+04,-6.56e+03,3.02e+04
195,-2.06e+04,-1.21e+04,-1.58e+04,-1.23e+04,-1.26e+04,-9.09e+03,3.51e+04
196,-2.55e+04,-5.07e+03,-9.78e+03,-2.65e+02,-9.69e+03,2.07e+02,2.50e+04
197,-3.04e+04,-5.41e+01,-1.09e+04,-1.56e+03,-1.45e+04,3.89e+01,3.67e+04
198,-3.68e+04,-9.48e+03,-2.62e+04,-2.52e+03,-2.38e+04,-2.57e+03,4.81e+04
199,-1.74e+04,-3.18e+03,-6.51e+03,6.01e+03,-6.38e+03,2.62e+03,2.04e+04
200,-2.07e+04,2.90e+02,-7.03e+03,5.80e+03,-9.47e+03,6.19e+03,2.87e+04
201,-2.39e+04,-6.42e+03,-1.67e+04,5.82e+03,-1.50e+04,3.97e+03,3.25e+04
202,2.81e-03,2.71e-03,1.52e-03,8.49e+03,3.71e-03,3.52e+03,1.59e+04
203,1.05e-03,7.62e-03,3.53e-03,7.96e+03,3.93e-03,8.20e+03,1.98e+04
204,-5.77e-03,1.80e-02,1.05e-02,6.41e+03,1.54e-03,5.28e+03,1.44e+04
205,1.74e+04,3.18e+03,6.51e+03,6.01e+03,6.38e+03,2.62e+03,2.04e+04
206,2.07e+04,-2.90e+02,7.03e+03,5.80e+03,9.47e+03,6.19e+03,2.87e+04
207,2.39e+04,6.42e+03,1.67e+04,5.82e+03,1.50e+04,3.97e+03,3.25e+04
208,2.55e+04,5.07e+03,9.78e+03,-2.65e+02,9.69e+03,2.07e+02,2.50e+04
209,3.04e+04,5.41e+01,1.09e+04,-1.56e+03,1.45e+04,3.89e+01,3.67e+04
210,3.68e+04,9.48e+03,2.62e+04,-2.52e+03,2.38e+04,-2.57e+03,4.81e+04
211,2.03e+04,5.95e+03,8.36e+03,-5.85e+03,8.29e+03,-2.07e+03,2.23e+04
212,2.14e+04,4.02e+03,9.20e+03,-8.91e+03,1.01e+04,-6.56e+03,3.02e+04
213,2.06e+04,1.21e+04,1.58e+04,-1.23e+04,1.26e+04,-9.09e+03,3.51e+04
214,9.45e+03,5.14e+03,4.53e+03,-6.22e+03,4.61e+03,-2.18e+03,1.47e+04
215,7.03e+03,7.14e+03,4.68e+03,-5.40e+03,3.09e+03,-5.14e+03,1.42e+04
216,8.49e+01,2.76e+03,2.93e+02,-1.34e+03,7.49e+01,-3.21e+03,6.55e+03
217,2.61e+03,3.11e+03,1.67e+03,-4.04e+03,2.04e+03,-1.24e+03,8.23e+03
218,7.06e+02,3.98e+03,1.17e+03,-1.69e+03,6.94e+02,-2.50e+03,6.17e+03
219,2.71e+02,9.93e+02,-4.32e+01,2.11e+02,-1.83e+02,-1.76e+03,3.22e+03
220,3.73e+02,1.28e+03,3.84e+02,-2.30e+03,1.00e+03,-5.35e+02,4.53e+03
221,-3.60e+01,1.84e+03,2.15e+02,-9.07e+02,3.76e+02,-1.15e+03,3.16e+03
222,-1.19e+02,4.02e+02,-4.17e+02,1.20e+02,-3.98e+01,-1.12e+03,2.09e+03
223,1.15e+03,6.67e+02,4.06e+02,-1.42e+03,8.46e+02,-1.50e+02,2.94e+03
224,6.00e+01,3.96e+02,-2.43e+02,-4.66e+02,5.23e+02,-3.60e+02,1.47e+03
225,-6.58e+01,1.05e+02,-5.03e+02,5.95e+01,1.70e+02,-4.69e+02,1.03e+03
226,-1.29e+03,-8.38e+02,-3.69e+02,-1.79e+03,-6.51e+02,-1.27e+02,3.39e+03
227,5.33e+01,-5.44e+02,5.53e+02,-5.44e+02,-3.85e+02,-2.98e+02,1.58e+03
228,1.12e+02,-1.41e+02,9.05e+02,1.14e+02,-1.16e+02,-3.75e+02,1.18e+03
229,-4.41e+02,-1.80e+03,-3.50e+02,-3.03e+03,-8.03e+02,-4.58e+02,5.67e+03
230,4.18e+01,-2.67e+03,7.62e-01,-1.06e+03,-2.68e+02,-9.65e+02,3.69e+03
231,2.57e+02,-5.43e+02,8.65e+02,2.88e+02,6.25e+01,-8.98e+02,2.04e+03
232,-4.22e+03,-5.02e+03,-2.18e+03,-5.91e+03,-1.73e+03,-1.06e+03,1.11e+04
233,-7.95e+02,-6.12e+03,-7.32e+02,-2.19e+03,-5.59e+02,-2.12e+03,7.58e+03
234,-7.30e+02,-1.45e+03,7.98e+02,4.66e+02,1.82e+02,-1.43e+03,3.30e+03
235,-1.57e+04,-8.21e+03,-5.96e+03,-9.69e+03,-3.96e+03,-1.84e+03,2.04e+04
236,-1.26e+04,-1.33e+04,-5.10e+03,-9.81e+03,-2.64e+03,-4.28e+03,2.06e+04
237,2.19e+03,-4.92e+03,9.35e+02,-1.36e+03,-1.86e+02,-2.46e+03,8.19e+03
238,-3.37e+04,-9.47e+03,-1.08e+04,-9.33e+03,-7.02e+03,-1.71e+03,3.12e+04
239,-3.99e+04,-6.48e+03,-8.57e+03,-1.67e+04,-7.75e+03,-5.05e+03,4.63e+04
240,-4.84e+04,-2.85e+04,-1.76e+04,-3.02e+04,-9.02e+03,-8.52e+03,6.27e+04
241,-4.19e+04,-7.81e+03,-1.23e+04,-4.54e+02,-8.04e+03,1.98e+02,3.49e+04
242,-5.65e+04,-5.64e+02,-1.03e+04,-1.92e+03,-9.99e+03,1.94e+02,5.46e+04
243,-8.09e+04,-1.33e+04,-1.96e+04,-4.15e+03,-1.47e+04,-2.09e+03,7.00e+04
244,-2.83e+04,-5.06e+03,-8.27e+03,9.29e+03,-5.17e+03,2.04e+03,2.88e+04
245,-3.71e+04,-4.57e+02,-6.85e+03,1.04e+04,-6.04e+03,4.23e+03,4.05e+04
246,-4.83e+04,-8.81e+03,-1.20e+04,1.18e+04,-7.77e+03,2.27e+03,4.54e+04
247,1.12e-03,3.00e-03,5.41e-04,1.30e+04,3.27e-03,2.68e+03,2.30e+04
248,-2.43e-03,1.09e-02,1.27e-03,1.37e+04,4.75e-03,5.45e+03,2.55e+04
249,-1.85e-02,2.96e-02,4.06e-03,1.25e+04,8.92e-03,2.62e+03,2.22e+04
250,2.83e+04,5.06e+03,8.27e+03,9.29e+03,5.17e+03,2.04e+03,2.88e+04
251,3.71e+04,4.57e+02,6.85e+03,1.04e+04,6.04e+03,4.23e+03,4.05e+04
252,4.83e+04,8.81e+03,1.20e+04,1.18e+04,7.77e+03,2.27e+03,4.54e+04
253,4.19e+04,7.81e+03,1.23e+04,-4.54e+02,8.04e+03,1.98e+02,3.49e+04
254,5.65e+04,5.64e+02,1.03e+04,-1.92e+03,9.99e+03,1.94e+02,5.46e+04
255,8.09e+04,1.33e+04,1.96e+04,-4.15e+03,1.47e+04,-2.09e+03,7.00e+04
256,3.37e+04,9.47e+03,1.08e+04,-9.33e+03,7.02e+03,-1.71e+03,3.12e+04
257,3.99e+04,6.48e+03,8.57e+03,-1.67e+04,7.75e+03,-5.05e+03,4.63e+04
258,4.84e+04,2.85e+04,1.76e+04,-3.02e+04,9.02e+03,-8.52e+03,6.27e+04
259,1.57e+04,8.21e+03,5.96e+03,-9.69e+03,3.96e+03,-1.84e+03,2.04e+04
260,1.26e+04,1.33e+04,5.10e+03,-9.81e+03,2.64e+03,-4.28e+03,2.06e+04
261,-2.19e+03,4.92e+03,-9.35e+02,-1.36e+03,1.86e+02,-2.46e+03,8.19e+03
262,4.22e+03,5.02e+03,2.18e+03,-5.91e+03,1.73e+03,-1.06e+03,1.11e+04
263,7.95e+02,6.12e+03,7.32e+02,-2.19e+03,5.59e+02,-2.12e+03,7.58e+03
264,7.30e+02,1.45e+03,-7.98e+02,4.66e+02,-1.82e+02,-1.43e+03,3.30e+03
265,4.41e+02,1.80e+03,3.50e+02,-3.03e+03,8.03e+02,-4.58e+02,5.67e+03
266,-4.18e+01,2.67e+03,-7.63e-01,-1.06e+03,2.68e+02,-9.65e+02,3.69e+03
267,-2.57e+02,5.43e+02,-8.65e+02,2.88e+02,-6.25e+01,-8.98e+02,2.04e+03
268,1.29e+03,8.38e+02,3.69e+02,-1.79e+03,6.51e+02,-1.27e+02,3.39e+03
269,-5.33e+01,5.44e+02,-5.53e+02,-5.44e+02,3.85e+02,-2.98e+02,1.58e+03
270,-1.12e+02,1.41e+02,-9.05e+02,1.14e+02,1.16e+02,-3.75e+02,1.18e+03
271,-1.36e+03,-9.56e+02,-3.34e+02,-2.04e+03,-3.54e+02,-7.26e+01,3.70e+03
272,1.38e+02,-6.51e+02,7.77e+02,-5.93e+02,-2.04e+02,-1.67e+02,1.67e+03
273,1.50e+02,-1.61e+02,1.19e+03,1.58e+02,-5.85e+01,-2.04e+02,1.31e+03
274,-5.14e+02,-2.20e+03,-3.48e+02,-3.56e+03,-4.47e+02,-2.56e+02,6.48e+03
275,8.31e+01,-3.23e+03,1.64e+02,-1.16e+03,-1.46e+02,-5.39e+02,4.03e+03
276,3.21e+02,-5.93e+02,1.22e+03,4.18e+02,3.87e+01,-4.89e+02,1.93e+03
277,-5.32e+03,-6.23e+03,-2.54e+03,-7.16e+03,-9.68e+02,-5.63e+02,1.30e+04
278,-1.11e+03,-7.61e+03,-5.76e+02,-2.63e+03,-3.32e+02,-1.14e+03,8.43e+03
279,-8.98e+02,-1.71e+03,1.17e+03,6.54e+02,7.85e+01,-7.43e+02,3.09e+03
280,-1.97e+04,-1.02e+04,-7.07e+03,-1.19e+04,-2.12e+03,-9.25e+02,2.39e+04
281,-1.61e+04,-1.65e+04,-5.56e+03,-1.22e+04,-1.23e+03,-2.07e+03,2.40e+04
282,2.33e+03,-5.93e+03,2.32e+03,-1.99e+03,-1.08e+02,-1.43e+03,9.28e+03
283,-4.22e+04,-1.19e+04,-1.31e+04,-1.15e+04,-3.59e+03,-8.28e+02,3.63e+04
284,-4.95e+04,-8.10e+03,-9.55e+03,-2.03e+04,-2.96e+03,-2.23e+03,5.42e+04
285,-5.89e+04,-3.58e+04,-2.02e+04,-3.63e+04,-2.06e+03,-3.70e+03,7.17e+04
286,-5.19e+04,-9.99e+03,-1.51e+04,-5.73e+02,-3.96e+03,1.09e+02,4.02e+04
287,-6.82e+04,-1.35e+03,-1.20e+04,-1.96e+03,-3.56e+03,-3.19e+00,6.27e+04
288,-9.35e+04,-1.72e+04,-2.22e+04,-4.06e+03,-3.54e+03,-6.93e+02,7.45e+04
289,-3.48e+04,-6.56e+03,-1.02e+04,1.10e+04,-2.49e+03,9.29e+02,3.30e+04
290,-4.39e+04,-1.31e+03,-8.00e+03,1.17e+04,-2.12e+03,1.70e+03,4.48e+04
291,-5.27e+04,-9.87e+03,-1.20e+04,1.15e+04,-2.07e+03,8.31e+02,4.64e+04
292,1.65e-04,2.94e-03,-1.08e-03,1.53e+04,2.40e-03,1.20e+03,2.66e+04
293,-2.25e-03,1.16e-02,-4.47e-03,1.50e+04,5.51e-03,2.22e+03,2.62e+04
294,-1.28e-02,2.84e-02,-1.32e-02,1.22e+04,1.45e-02,9.14e+02,2.12e+04
295,3.48e+04,6.56e+03,1.02e+04,1.10e+04,2.49e+03,9.29e+02,3.30e+04
296,4.39e+04,1.31e+03,8.00e+03,1.17e+04,2.12e+03,1.70e+03,4.48e+04
297,5.27e+04,9.87e+03,1.20e+04,1.15e+04,2.07e+03,8.31e+02,4.64e+04
298,5.19e+04,9.99e+03,1.51e+04,-5.73e+02,3.96e+03,1.09e+02,4.02e+04
299,6.82e+04,1.35e+03,1.20e+04,-1.96e+03,3.56e+03,-3.19e+00,6.27e+04
300,9.35e+04,1.72e+04,2.22e+04,-4.06e+03,3.54e+03,-6.93e+02,7.45e+04
301,4.22e+04,1.19e+04,1.31e+04,-1.15e+04,3.59e+03,-8.28e+02,3.63e+04
302,4.95e+04,8.10e+03,9.55e+03,-2.03e+04,2.96e+03,-2.23e+03,5.42e+04
303,5.89e+04,3.58e+04,2.02e+04,-3.63e+04,2.06e+03,-3.70e+03,7.17e+04
304,1.97e+04,1.02e+04,7.07e+03,-1.19e+04,2.12e+03,-9.25e+02,2.39e+04
305,1.61e+04,1.65e+04,5.56e+03,-1.22e+04,1.23e+03,-2.07e+03,2.40e+04
306,-2.33e+03,5.93e+03,-2.32e+03,-1.99e+03,1.08e+02,-1.43e+03,9.28e+03
307,5.32e+03,6.23e+03,2.54e+03,-7.16e+03,9.68e+02,-5.63e+02,1.30e+04
308,1.11e+03,7.61e+03,5.76e+02,-2.63e+03,3.32e+02,-1.14e+03,8.43e+03
309,8.98e+02,1.71e+03,-1.17e+03,6.54e+02,-7.85e+01,-7.43e+02,3.09e+03
310,5.14e+02,2.20e+03,3.48e+02,-3.56e+03,4.47e+02,-2.56e+02,6.48e+03
311,-8.31e+01,3.23e+03,-1.64e+02,-1.16e+03,1.46e+02,-5.39e+02,4.03e+03
312,-3.21e+02,5.93e+02,-1.22e+03,4.18e+02,-3.87e+01,-4.89e+02,1.93e+03
313,1.36e+03,9.56e+02,3.34e+02,-2.04e+03,3.54e+02,-7.26e+01,3.70e+03
314,-1.38e+02,6.51e+02,-7.77e+02,-5.93e+02,2.04e+02,-1.67e+02,1.67e+03
315,-1.50e+02,1.61e+02,-1.19e+03,1.58e+02,5.85e+01,-2.04e+02,1.31e+03
316,-1.39e+03,-9.97e+02,-3.20e+02,-2.14e+03,1.18e-11,8.10e-12,3.82e+03
317,1.69e+02,-6.90e+02,8.58e+02,-6.09e+02,1.64e-12,1.93e-11,1.71e+03
318,1.67e+02,-1.63e+02,1.30e+03,1.74e+02,-7.43e-13,2.74e-11,1.37e+03
319,-5.50e+02,-2.34e+03,-3.58e+02,-3.76e+03,-7.52e-12,2.85e-11,6.78e+03
320,1.08e+02,-3.43e+03,2.21e+02,-1.20e+03,-3.76e-11,5.16e-11,4.15e+03
321,3.19e+02,-6.14e+02,1.32e+03,4.66e+02,-2.84e-11,3.79e-11,1.86e+03
322,-5.68e+03,-6.60e+03,-2.66e+03,-7.57e+03,6.45e-12,7.08e-11,1.36e+04
323,-1.32e+03,-8.12e+03,-5.94e+02,-2.82e+03,-6.92e-11,1.09e-10,8.69e+03
324,-8.60e+02,-1.71e+03,1.38e+03,7.00e+02,-7.44e-11,-1.36e-11,3.02e+03
325,-2.10e+04,-1.09e+04,-7.53e+03,-1.26e+04,1.12e-10,1.55e-10,2.49e+04
326,-1.71e+04,-1.72e+04,-5.73e+03,-1.27e+04,-5.63e-11,2.12e-10,2.48e+04
327,1.80e+03,-6.47e+03,2.51e+03,-2.34e+03,-6.66e-11,-1.61e-10,9.54e+03
328,-4.47e+04,-1.26e+04,-1.40e+04,-1.21e+04,3.81e-10,2.30e-10,3.78e+04
329,-5.19e+04,-8.91e+03,-1.08e+04,-2.11e+04,1.92e-10,3.88e-10,5.57e+04
330,-5.90e+04,-3.62e+04,-2.00e+04,-3.65e+04,-1.42e-10,-5.34e-10,7.18e+04
331,-5.48e+04,-1.07e+04,-1.61e+04,-6.23e+02,7.33e-10,1.94e-10,4.16e+04
332,-7.09e+04,-1.96e+03,-1.37e+04,-2.09e+03,5.60e-10,2.98e-10,6.40e+04
333,-9.28e+04,-1.76e+04,-2.17e+04,-4.25e+03,-1.26e-10,-1.59e-10,7.36e+04
334,-3.65e+04,-7.04e+03,-1.09e+04,1.14e+04,1.02e-09,9.41e-11,3.41e+04
335,-4.53e+04,-1.69e+03,-8.87e+03,1.17e+04,8.13e-10,1.41e-10,4.53e+04
336,-5.21e+04,-9.84e+03,-1.13e+04,1.09e+04,2.16e-10,3.57e-11,4.57e+04
337,2.72e-04,2.93e-03,-1.97e-03,1.59e+04,1.25e-09,7.35e-13,2.75e+04
338,-4.80e-04,1.14e-02,-8.62e-03,1.49e+04,1.11e-09,-4.53e-12,2.58e+04
339,-2.92e-03,2.75e-02,-2.11e-02,1.14e+04,7.13e-10,-6.48e-12,1.98e+04
340,3.65e+04,7.04e+03,1.09e+04,1.14e+04,1.39e-09,-1.17e-10,3.41e+04
341,4.53e+04,1.69e+03,8.87e+03,1.17e+04,1.42e-09,-2.19e-10,4.53e+04
342,5.21e+04,9.84e+03,1.13e+04,1.09e+04,1.32e-09,-8.32e-11,4.57e+04
343,5.48e+04,1.07e+04,1.61e+04,-6.23e+02,1.31e-09,-2.60e-10,4.16e+04
344,7.09e+04,1.96e+03,1.37e+04,-2.09e+03,1.50e-09,-5.77e-10,6.40e+04
345,9.28e+04,1.76e+04,2.17e+04,-4.25e+03,1.76e-09,-4.49e-10,7.36e+04
346,4.47e+04,1.26e+04,1.40e+04,-1.21e+04,9.48e-10,-3.63e-10,3.78e+04
347,5.19e+04,8.91e+03,1.08e+04,-2.11e+04,9.96e-10,-9.35e-10,5.57e+04
348,5.90e+04,3.62e+04,2.00e+04,-3.65e+04,1.01e-09,-1.13e-09,7.18e+04
349,2.10e+04,1.09e+04,7.53e+03,-1.26e+04,5.00e-10,-2.92e-10,2.49e+04
350,1.71e+04,1.72e+04,5.73e+03,-1.27e+04,3.43e-10,-6.70e-10,2.48e+04
351,-1.80e+03,6.47e+03,-2.51e+03,-2.34e+03,6.54e-11,-4.82e-10,9.54e+03
352,5.68e+03,6.60e+03,2.66e+03,-7.57e+03,2.09e-10,-1.57e-10,1.36e+04
353,1.32e+03,8.12e+03,5.94e+02,-2.82e+03,7.45e-11,-3.34e-10,8.69e+03
354,8.60e+02,1.71e+03,-1.38e+03,7.00e+02,-2.04e-11,-2.75e-10,3.02e+03
355,5.50e+02,2.34e+03,3.58e+02,-3.76e+03,9.58e-11,-6.52e-11,6.78e+03
356,-1.08e+02,3.43e+03,-2.21e+02,-1.20e+03,3.47e-11,-1.46e-10,4.15e+03
357,-3.19e+02,6.14e+02,-1.32e+03,4.66e+02,-4.31e-12,-1.64e-10,1.86e+03
358,1.39e+03,9.97e+02,3.20e+02,-2.14e+03,8.51e-11,-2.03e-11,3.82e+03
359,-1.69e+02,6.90e+02,-8.58e+02,-6.09e+02,5.35e-11,-4.82e-11,1.71e+03
360,-1.67e+02,1.63e+02,-1.30e+03,1.74e+02,1.94e-11,-6.76e-11,1.37e+03
361,-1.36e+03,-9.56e+02,-3.34e+02,-2.04e+03,3.54e+02,7.26e+01,3.70e+03
362,1.38e+02,-6.51e+02,7.77e+02,-5.93e+02,2.04e+02,1.67e+02,1.67e+03
363,1.50e+02,-1.61e+02,1.19e+03,1.58e+02,5.85e+01,2.04e+02,1.31e+03
364,-5.14e+02,-2.20e+03,-3.48e+02,-3.56e+03,4.47e+02,2.56e+02,6.48e+03
365,8.31e+01,-3.23e+03,1.64e+02,-1.16e+03,1.46e+02,5.39e+02,4.03e+03
366,3.21e+02,-5.93e+02,1.22e+03,4.18e+02,-3.87e+01,4.89e+02,1.93e+03
367,-5.32e+03,-6.23e+03,-2.54e+03,-7.16e+03,9.68e+02,5.63e+02,1.30e+04
368,-1.11e+03,-7.61e+03,-5.76e+02,-2.63e+03,3.32e+02,1.14e+03,8.43e+03
369,-8.98e+02,-1.71e+03,1.17e+03,6.54e+02,-7.85e+01,7.43e+02,3.09e+03
370,-1.97e+04,-1.02e+04,-7.07e+03,-1.19e+04,2.12e+03,9.25e+02,2.39e+04
371,-1.61e+04,-1.65e+04,-5.56e+03,-1.22e+04,1.23e+03,2.07e+03,2.40e+04
372,2.33e+03,-5.93e+03,2.32e+03,-1.99e+03,1.08e+02,1.43e+03,9.28e+03
373,-4.22e+04,-1.19e+04,-1.31e+04,-1.15e+04,3.59e+03,8.28e+02,3.63e+04
374,-4.95e+04,-8.10e+03,-9.55e+03,-2.03e+04,2.96e+03,2.23e+03,5.42e+04
375,-5.89e+04,-3.58e+04,-2.02e+04,-3.63e+04,2.06e+03,3.70e+03,7.17e+04
376,-5.19e+04,-9.99e+03,-1.51e+04,-5.73e+02,3.96e+03,-1.09e+02,4.02e+04
377,-6.82e+04,-1.35e+03,-1.20e+04,-1.96e+03,3.56e+03,3.19e+00,6.27e+04
378,-9.35e+04,-1.72e+04,-2.22e+04,-4.06e+03,3.54e+03,6.93e+02,7.45e+04
379,-3.48e+04,-6.56e+03,-1.02e+04,1.10e+04,2.49e+03,-9.29e+02,3.30e+04
380,-4.39e+04,-1.31e+03,-8.00e+03,1.17e+04,2.12e+03,-1.70e+03,4.48e+04
381,-5.27e+04,-9.87e+03,-1.20e+04,1.15e+04,2.07e+03,-8.31e+02,4.64e+04
382,1.65e-04,2.94e-03,-1.08e-03,1.53e+04,-2.40e-03,-1.20e+03,2.66e+04
383,-2.25e-03,1.16e-02,-4.47e-03,1.50e+04,-5.51e-03,-2.22e+03,2.62e+04
384,-1.28e-02,2.84e-02,-1.32e-02,1.22e+04,-1.45e-02,-9.14e+02,2.12e+04
385,3.48e+04,6.56e+03,1.02e+04,1.10e+04,-2.49e+03,-9.29e+02,3.30e+04
386,4.39e+04,1.31e+03,8.00e+03,1.17e+04,-2.12e+03,-1.70e+03,4.48e+04
387,5.27e+04,9.87e+03,1.20e+04,1.15e+04,-2.07e+03,-8.31e+02,4.64e+04
388,5.19e+04,9.99e+03,1.51e+04,-5.73e+02,-3.96e+03,-1.09e+02,4.02e+04
389,6.82e+04,1.35e+03,1.20e+04,-1.96e+03,-3.56e+03,3.19e+00,6.27e+04
390,9.35e+04,1.72e+04,2.22e+04,-4.06e+03,-3.54e+03,6.93e+02,7.45e+04
391,4.22e+04,1.19e+04,1.31e+04,-1.15e+04,-3.59e+03,8.28e+02,3.63e+04
392,4.95e+04,8.10e+03,9.55e+03,-2.03e+04,-2.96e+03,2.23e+03,5.42e+04
393,5.89e+04,3.58e+04,2.02e+04,-3.63e+04,-2.06e+03,3.70e+03,7.17e+04
394,1.97e+04,1.02e+04,7.07e+03,-1.19e+04,-2.12e+03,9.25e+02,2.39e+04
395,1.61e+04,1.65e+04,5.56e+03,-1.22e+04,-1.23e+03,2.07e+03,2.40e+04
396,-2.33e+03,5.93e+03,-2.32e+03,-1.99e+03,-1.08e+02,1.43e+03,9.28e+03
397,5.32e+03,6.23e+03,2.54e+03,-7.16e+03,-9.68e+02,5.63e+02,1.30e+04
398,1.11e+03,7.61e+03,5.76e+02,-2.63e+03,-3.32e+02,1.14e+03,8.43e+03
399,8.98e+02,1.71e+03,-1.17e+03,6.54e+02,7.85e+01,7.43e+02,3.09e+03
400,5.14e+02,2.20e+03,3.48e+02,-3.56e+03,-4.47e+02,2.56e+02,6.48e+03
401,-8.31e+01,3.23e+03,-1.64e+02,-1.16e+03,-1.46e+02,5.39e+02,4.03e+03
402,-3.21e+02,5.93e+02,-1.22e+03,4.18e+02,3.87e+01,4.89e+02,1.93e+03
403,1.36e+03,9.56e+02,3.34e+02,-2.04e+03,-3.54e+02,7.26e+01,3.70e+03
404,-1.38e+02,6.51e+02,-7.77e+02,-5.93e+02,-2.04e+02,1.67e+02,1.67e+03
405,-1.50e+02,1.61e+02,-1.19e+03,1.58e+02,-5.85e+01,2.04e+02,1.31e+03
406,-1.29e+03,-8.38e+02,-3.69e+02,-1.79e+03,6.51e+02,1.27e+02,3.39e+03
407,5.33e+01,-5.44e+02,5.53e+02,-5.44e+02,3.85e+02,2.98e+02,1.58e+03
408,1.12e+02,-1.41e+02,9.05e+02,1.14e+02,1.16e+02,3.75e+02,1.18e+03
409,-4.41e+02,-1.80e+03,-3.50e+02,-3.03e+03,8.03e+02,4.58e+02,5.67e+03
410,4.18e+01,-2.67e+03,7.62e-01,-1.06e+03,2.68e+02,9.65e+02,3.69e+03
411,2.57e+02,-5.43e+02,8.65e+02,2.88e+02,-6.25e+01,8.98e+02,2.04e+03
412,-4.22e+03,-5.02e+03,-2.18e+03,-5.91e+03,1.73e+03,1.06e+03,1.11e+04
413,-7.95e+02,-6.12e+03,-7.32e+02,-2.19e+03,5.59e+02,2.12e+03,7.58e+03
414,-7.30e+02,-1.45e+03,7.98e+02,4.66e+02,-1.82e+02,1.43e+03,3.30e+03
415,-1.57e+04,-8.21e+03,-5.96e+03,-9.69e+03,3.96e+03,1.84e+03,2.04e+04
416,-1.26e+04,-1.33e+04,-5.10e+03,-9.81e+03,2.64e+03,4.28e+03,2.06e+04
417,2.19e+03,-4.92e+03,9.35e+02,-1.36e+03,1.86e+02,2.46e+03,8.19e+03
418,-3.37e+04,-9.47e+03,-1.08e+04,-9.33e+03,7.02e+03,1.71e+03,3.12e+04
419,-3.99e+04,-6.48e+03,-8.57e+03,-1.67e+04,7.75e+03,5.05e+03,4.63e+04
420,-4.84e+04,-2.85e+04,-1.76e+04,-3.02e+04,9.02e+03,8.52e+03,6.27e+04
421,-4.19e+04,-7.81e+03,-1.23e+04,-4.54e+02,8.04e+03,-1.98e+02,3.49e+04
422,-5.65e+04,-5.64e+02,-1.03e+04,-1.92e+03,9.99e+03,-1.94e+02,5.46e+04
423,-8.09e+04,-1.33e+04,-1.96e+04,-4.15e+03,1.47e+04,2.09e+03,7.00e+04
424,-2.83e+04,-5.06e+03,-8.27e+03,9.29e+03,5.17e+03,-2.04e+03,2.88e+04
425,-3.71e+04,-4.57e+02,-6.85e+03,1.04e+04,6.04e+03,-4.23e+03,4.05e+04
426,-4.83e+04,-8.81e+03,-1.20e+04,1.18e+04,7.77e+03,-2.27e+03,4.54e+04
427,1.12e-03,3.00e-03,5.41e-04,1.30e+04,-3.27e-03,-2.68e+03,2.30e+04
428,-2.43e-03,1.09e-02,1.27e-03,1.37e+04,-4.75e-03,-5.45e+03,2.55e+04
429,-1.85e-02,2.96e-02,4.06e-03,1.25e+04,-8.92e-03,-2.62e+03,2.22e+04
430,2.83e+04,5.06e+03,8.27e+03,9.29e+03,-5.17e+03,-2.04e+03,2.88e+04
431,3.71e+04,4.57e+02,6.85e+03,1.04e+04,-6.04e+03,-4.23e+03,4.05e+04
432,4.83e+04,8.81e+03,1.20e+04,1.18e+04,-7.77e+03,-2.27e+03,4.54e+04
433,4.19e+04,7.81e+03,1.23e+04,-4.54e+02,-8.04e+03,-1.98e+02,3.49e+04
434,5.65e+04,5.64e+02,1.03e+04,-1.92e+03,-9.99e+03,-1.94e+02,5.46e+04
435,8.09e+04,1.33e+04,1.96e+04,-4.15e+03,-1.47e+04,2.09e+03,7.00e+04
436,3.37e+04,9.47e+03,1.08e+04,-9.33e+03,-7.02e+03,1.71e+03,3.12e+04
437,3.99e+04,6.48e+03,8.57e+03,-1.67e+04,-7.75e+03,5.05e+03,4.63e+04
438,4.84e+04,2.85e+04,1.76e+04,-3.02e+04,-9.02e+03,8.52e+03,6.27e+04
439,1.57e+04,8.21e+03,5.96e+03,-9.69e+03,-3.96e+03,1.84e+03,2.04e+04
440,1.26e+04,1.33e+04,5.10e+03,-9.81e+03,-2.64e+03,4.28e+03,2.06e+04
441,-2.19e+03,4.92e+03,-9.35e+02,-1.36e+03,-1.86e+02,2.46e+03,8.19e+03
442,4.22e+03,5.02e+03,2.18e+03,-5.91e+03,-1.73e+03,1.06e+03,1.11e+04
443,7.95e+02,6.12e+03,7.32e+02,-2.19e+03,-5.59e+02,2.12e+03,7.58e+03
444,7.30e+02,1.45e+03,-7.98e+02,4.66e+02,1.82e+02,1.43e+03,3.30e+03
445,4.41e+02,1.80e+03,3.50e+02,-3.03e+03,-8.03e+02,4.58e+02,5.67e+03
446,-4.18e+01,2.67e+03,-7.63e-01,-1.06e+03,-2.68e+02,9.65e+02,3.69e+03
447,-2.57e+02,5.43e+02,-8.65e+02,2.88e+02,6.25e+01,8.98e+02,2.04e+03
448,1.29e+03,8.38e+02,3.69e+02,-1.79e+03,-6.51e+02,1.27e+02,3.39e+03
449,-5.33e+01,5.44e+02,-5.53e+02,-5.44e+02,-3.85e+02,2.98e+02,1.58e+03
450,-1.12e+02,1.41e+02,-9.05e+02,1.14e+02,-1.16e+02,3.75e+02,1.18e+03
451,-1.15e+03,-6.67e+02,-4.06e+02,-1.42e+03,8.46e+02,1.50e+02,2.94e+03
452,-6.00e+01,-3.96e+02,2.43e+02,-4.66e+02,5.23e+02,3.60e+02,1.47e+03
453,6.58e+01,-1.05e+02,5.03e+02,5.95e+01,1.70e+02,4.69e+02,1.03e+03
454,-3.73e+02,-1.28e+03,-3.84e+02,-2.30e+03,1.00e+03,5.35e+02,4.53e+03
455,3.60e+01,-1.84e+03,-2.15e+02,-9.07e+02,3.76e+02,1.15e+03,3.16e+03
456,1.19e+02,-4.02e+02,4.17e+02,1.20e+02,-3.98e+01,1.12e+03,2.09e+03
457,-2.61e+03,-3.11e+03,-1.67e+03,-4.04e+03,2.04e+03,1.24e+03,8.23e+03
458,-7.06e+02,-3.98e+03,-1.17e+03,-1.69e+03,6.94e+02,2.50e+03,6.17e+03
459,-2.71e+02,-9.93e+02,4.32e+01,2.11e+02,-1.83e+02,1.76e+03,3.22e+03
460,-9.45e+03,-5.14e+03,-4.53e+03,-6.22e+03,4.61e+03,2.18e+03,1.47e+04
461,-7.03e+03,-7.14e+03,-4.68e+03,-5.40e+03,3.09e+03,5.14e+03,1.42e+04
462,-8.49e+01,-2.76e+03,-2.93e+02,-1.34e+03,7.49e+01,3.21e+03,6.55e+03
463,-2.03e+04,-5.95e+03,-8.36e+03,-5.85e+03,8.29e+03,2.07e+03,2.23e+04
464,-2.14e+04,-4.02e+03,-9.20e+03,-8.91e+03,1.01e+04,6.56e+03,3.02e+04
465,-2.06e+04,-1.21e+04,-1.58e+04,-1.23e+04,1.26e+04,9.09e+03,3.51e+04
466,-2.55e+04,-5.07e+03,-9.78e+03,-2.65e+02,9.69e+03,-2.07e+02,2.50e+04
467,-3.04e+04,-5.41e+01,-1.09e+04,-1.56e+03,1.45e+04,-3.89e+01,3.67e+04
468,-3.68e+04,-9.48e+03,-2.62e+04,-2.52e+03,2.38e+04,2.57e+03,4.81e+04
469,-1.74e+04,-3.18e+03,-6.51e+03,6.01e+03,6.38e+03,-2.62e+03,2.04e+04
470,-2.07e+04,2.90e+02,-7.03e+03,5.80e+03,9.47e+03,-6.19e+03,2.87e+04
471,-2.39e+04,-6.42e+03,-1.67e+04,5.82e+03,1.50e+04,-3.97e+03,3.25e+04
472,2.81e-03,2.71e-03,1.52e-03,8.49e+03,-3.71e-03,-3.52e+03,1.59e+04
473,1.05e-03,7.62e-03,3.53e-03,7.96e+03,-3.93e-03,-8.20e+03,1.98e+04
474,-5.77e-03,1.80e-02,1.05e-02,6.41e+03,-1.54e-03,-5.28e+03,1.44e+04
475,1.74e+04,3.18e+03,6.51e+03,6.01e+03,-6.38e+03,-2.62e+03,2.04e+04
476,2.07e+04,-2.90e+02,7.03e+03,5.80e+03,-9.47e+03,-6.19e+03,2.87e+04
477,2.39e+04,6.42e+03,1.67e+04,5.82e+03,-1.50e+04,-3.97e+03,3.25e+04
478,2.55e+04,5.07e+03,9.78e+03,-2.65e+02,-9.69e+03,-2.07e+02,2.50e+04
479,3.04e+04,5.41e+01,1.09e+04,-1.56e+03,-1.45e+04,-3.89e+01,3.67e+04
480,3.68e+04,9.48e+03,2.62e+04,-2.52e+03,-2.38e+04,2.57e+03,4.81e+04
481,2.03e+04,5.95e+03,8.36e+03,-5.85e+03,-8.29e+03,2.07e+03,2.23e+04
482,2.14e+04,4.02e+03,9.20e+03,-8.91e+03,-1.01e+04,6.56e+03,3.02e+04
483,2.06e+04,1.21e+04,1.58e+04,-1.23e+04,-1.26e+04,9.09e+03,3.51e+04
484,9.45e+03,5.14e+03,4.53e+03,-6.22e+03,-4.61e+03,2.18e+03,1.47e+04
485,7.03e+03,7.14e+03,4.68e+03,-5.40e+03,-3.09e+03,5.14e+03,1.42e+04
486,8.49e+01,2.76e+03,2.93e+02,-1.34e+03,-7.49e+01,3.21e+03,6.55e+03
487,2.61e+03,3.11e+03,1.67e+03,-4.04e+03,-2.04e+03,1.24e+03,8.23e+03
488,7.06e+02,3.98e+03,1.17e+03,-1.69e+03,-6.94e+02,2.50e+03,6.17e+03
489,2.71e+02,9.93e+02,-4.32e+01,2.11e+02,1.83e+02,1.76e+03,3.22e+03
490,3.73e+02,1.28e+03,3.84e+02,-2.30e+03,-1.00e+03,5.35e+02,4.53e+03
491,-3.60e+01,1.84e+03,2.15e+02,-9.07e+02,-3.76e+02,1.15e+03,3.16e+03
492,-1.19e+02,4.02e+02,-4.17e+02,1.20e+02,3.98e+01,1.12e+03,2.09e+03
493,1.15e+03,6.67e+02,4.06e+02,-1.42e+03,-8.46e+02,1.50e+02,2.94e+03
494,6.00e+01,3.96e+02,-2.43e+02,-4.66e+02,-5.23e+02,3.60e+02,1.47e+03
495,-6.58e+01,1.05e+02,-5.03e+02,5.95e+01,-1.70e+02,4.69e+02,1.03e+03
496,-9.76e+02,-4.87e+02,-4.32e+02,-1.02e+03,9.16e+02,1.37e+02,2.44e+03
497,-1.48e+02,-2.44e+02,-5.75e+01,-3.68e+02,6.03e+02,3.38e+02,1.37e+03
498,1.98e+01,-5.77e+01,1.35e+02,1.33e+01,2.16e+02,4.62e+02,8.99e+02
499,-2.72e+02,-7.49e+02,-3.81e+02,-1.53e+03,1.03e+03,4.68e+02,3.32e+03
500,7.04e+00,-1.04e+03,-3.83e+02,-7.13e+02,4.68e+02,1.04e+03,2.50e+03
501,1.40e+01,-2.26e+02,3.14e+00,-1.65e+01,3.86e+01,1.08e+03,1.89e+03
502,-1.17e+03,-1.43e+03,-1.15e+03,-2.30e+03,1.84e+03,9.56e+02,5.36e+03
503,-4.46e+02,-1.92e+03,-1.39e+03,-1.09e+03,7.70e+02,2.04e+03,4.42e+03
504,4.15e+01,-3.93e+02,-3.42e+02,-9.17e+00,-8.44e+01,1.60e+03,2.81e+03
505,-3.92e+03,-2.28e+03,-3.01e+03,-3.03e+03,3.63e+03,1.54e+03,8.73e+03
506,-2.35e+03,-2.12e+03,-3.65e+03,-1.84e+03,1.98e+03,3.25e+03,7.46e+03
507,-1.31e+03,-8.31e+02,-2.02e+03,-7.49e+02,6.22e+02,2.33e+03,4.49e+03
508,-8.09e+03,-2.61e+03,-5.50e+03,-2.60e+03,6.10e+03,1.42e+03,1.27e+04
509,-5.92e+03,-1.50e+03,-8.56e+03,-2.26e+03,4.89e+03,3.55e+03,1.28e+04
510,4.61e+02,1.51e+03,-3.99e+03,-1.30e+02,7.53e+02,2.31e+03,6.58e+03
511,-1.01e+04,-2.30e+03,-6.45e+03,-5.73e+01,7.01e+03,-1.93e+02,1.39e+04
512,-8.04e+03,-3.85e+02,-1.14e+04,-6.67e+02,6.76e+03,-1.73e+02,1.53e+04
513,2.45e+03,2.25e+03,-4.82e+03,-4.22e+02,2.88e+02,-1.02e+02,7.23e+03
514,-6.92e+03,-1.39e+03,-4.31e+03,2.78e+03,4.63e+03,-1.95e+03,1.10e+04
515,-5.64e+03,2.62e+01,-7.48e+03,1.30e+03,4.57e+03,-4.04e+03,1.28e+04
516,1.25e+03,1.63e+03,-2.94e+03,-2.20e+02,4.50e+02,-1.76e+03,5.42e+03
517,3.12e-03,1.90e-03,1.94e-03,3.94e+03,-3.86e-03,-2.63e+03,8.20e+03
518,2.48e-03,3.32e-03,3.88e-03,2.01e+03,-4.06e-03,-5.38e+03,9.95e+03
519,2.62e-03,4.99e-03,1.01e-02,2.79e+01,-3.75e-03,-2.32e+03,4.02e+03
520,6.92e+03,1.39e+03,4.31e+03,2.78e+03,-4.63e+03,-1.95e+03,1.10e+04
521,5.64e+03,-2.62e+01,7.48e+03,1.30e+03,-4.57e+03,-4.04e+03,1.28e+04
522,-1.25e+03,-1.63e+03,2.94e+03,-2.20e+02,-4.50e+02,-1.76e+03,5.42e+03
523,1.01e+04,2.30e+03,6.45e+03,-5.73e+01,-7.01e+03,-1.93e+02,1.39e+04
524,8.04e+03,3.85e+02,1.14e+04,-6.67e+02,-6.76e+03,-1.73e+02,1.53e+04
525,-2.45e+03,-2.25e+03,4.82e+03,-4.22e+02,-2.88e+02,-1.02e+02,7.23e+03
526,8.09e+03,2.61e+03,5.50e+03,-2.60e+03,-6.10e+03,1.42e+03,1.27e+04
527,5.92e+03,1.50e+03,8.56e+03,-2.26e+03,-4.89e+03,3.55e+03,1.28e+04
528,-4.61e+02,-1.51e+03,3.99e+03,-1.30e+02,-7.53e+02,2.31e+03,6.58e+03
529,3.92e+03,2.28e+03,3.01e+03,-3.03e+03,-3.63e+03,1.54e+03,8.73e+03
530,2.35e+03,2.12e+03,3.65e+03,-1.84e+03,-1.98e+03,3.25e+03,7.46e+03
531,1.31e+03,8.31e+02,2.02e+03,-7.49e+02,-6.22e+02,2.33e+03,4.49e+03
532,1.17e+03,1.43e+03,1.15e+03,-2.30e+03,-1.84e+03,9.56e+02,5.36e+03
533,4.46e+02,1.92e+03,1.39e+03,-1.09e+03,-7.70e+02,2.04e+03,4.42e+03
534,-4.15e+01,3.93e+02,3.42e+02,-9.17e+00,8.44e+01,1.60e+03,2.81e+03
535,2.72e+02,7.49e+02,3.81e+02,-1.53e+03,-1.03e+03,4.68e+02,3.32e+03
536,-7.05e+00,1.04e+03,3.83e+02,-7.13e+02,-4.68e+02,1.04e+03,2.50e+03
537,-1.40e+01,2.26e+02,-3.14e+00,-1.65e+01,-3.86e+01,1.08e+03,1.89e+03
538,9.76e+02,4.87e+02,4.32e+02,-1.02e+03,-9.16e+02,1.37e+02,2.44e+03
539,1.48e+02,2.44e+02,5.75e+01,-3.68e+02,-6.03e+02,3.38e+02,1.37e+03
540,-1.98e+01,5.77e+01,-1.35e+02,1.33e+01,-2.16e+02,4.62e+02,8.99e+02
541,-8.18e+02,-3.42e+02,-4.36e+02,-6.80e+02,8.72e+02,9.71e+01,1.97e+03
542,-1.99e+02,-1.20e+02,-2.57e+02,-2.66e+02,6.17e+02,2.52e+02,1.25e+03
543,-2.90e+01,-1.21e+01,-8.49e+01,-1.22e+01,2.45e+02,3.68e+02,7.69e+02
544,-1.84e+02,-3.64e+02,-3.21e+02,-9.09e+02,9.15e+02,3.14e+02,2.31e+03
545,-5.11e+01,-4.69e+02,-4.36e+02,-5.07e+02,5.21e+02,7.40e+02,1.84e+03
546,-6.67e-01,-3.64e+01,-1.34e+02,-8.21e+01,1.23e+02,8.51e+02,1.50e+03
547,-3.79e+02,-5.31e+02,-7.27e+02,-1.15e+03,1.39e+03,5.70e+02,3.30e+03
548,-2.19e+01,-5.80e+02,-1.04e+03,-5.57e+02,6.66e+02,1.24e+03,2.77e+03
549,-3.70e+01,-1.27e+01,-5.25e+02,-8.44e+01,9.32e+01,1.17e+03,2.10e+03
550,-1.03e+03,-6.59e+02,-1.58e+03,-1.24e+03,2.26e+03,7.57e+02,4.73e+03
551,-3.65e+02,-4.46e+02,-2.41e+03,-5.55e+02,1.02e+03,1.61e+03,3.99e+03
552,6.94e+01,4.59e+02,-1.07e+03,5.77e+01,-4.26e+01,1.24e+03,2.55e+03
553,-1.95e+03,-7.11e+02,-2.80e+03,-8.60e+02,3.24e+03,5.96e+02,6.18e+03
554,-3.67e+02,3.19e+02,-3.90e+03,-3.48e+02,1.22e+03,1.16e+03,4.92e+03
555,-2.10e+02,9.50e+02,-1.67e+03,3.02e+01,-2.74e+02,7.38e+02,2.65e+03
556,-2.36e+03,-6.19e+02,-3.32e+03,5.99e+01,3.46e+03,-1.71e+02,6.45e+03
557,-1.47e+02,9.23e+02,-4.31e+03,-1.47e+02,1.09e+03,-3.54e+02,5.19e+03
558,-4.84e+02,1.31e+03,-1.70e+03,-1.57e+02,-4.04e+02,-3.05e+02,2.78e+03
559,-1.61e+03,-3.57e+02,-2.21e+03,1.04e+03,2.24e+03,-1.00e+03,4.89e+03
560,-1.46e+02,6.83e+02,-2.88e+03,5.81e+01,7.03e+02,-1.97e+03,4.86e+03
561,-3.04e+02,7.93e+02,-1.06e+03,-3.89e+02,-3.19e+02,-1.30e+03,2.91e+03
562,2.13e-03,1.01e-03,1.73e-03,1.45e+03,-3.36e-03,-1.33e+03,3.40e+03
563,1.58e-03,1.14e-03,3.71e-03,1.73e+02,-3.18e-03,-2.62e+03,4.56e+03
564,1.42e-04,9.34e-04,5.11e-03,-4.69e+02,-1.48e-03,-1.63e+03,2.94e+03
565,1.61e+03,3.57e+02,2.21e+03,1.04e+03,-2.24e+03,-1.00e+03,4.89e+03
566,1.46e+02,-6.83e+02,2.88e+03,5.81e+01,-7.03e+02,-1.97e+03,4.86e+03
567,3.04e+02,-7.93e+02,1.06e+03,-3.89e+02,3.19e+02,-1.30e+03,2.91e+03
568,2.36e+03,6.19e+02,3.32e+03,5.99e+01,-3.46e+03,-1.71e+02,6.45e+03
569,1.47e+02,-9.23e+02,4.31e+03,-1.47e+02,-1.09e+03,-3.54e+02,5.19e+03
570,4.84e+02,-1.31e+03,1.70e+03,-1.57e+02,4.04e+02,-3.05e+02,2.78e+03
571,1.95e+03,7.11e+02,2.80e+03,-8.60e+02,-3.24e+03,5.96e+02,6.18e+03
572,3.67e+02,-3.19e+02,3.90e+03,-3.48e+02,-1.22e+03,1.16e+03,4.92e+03
573,2.10e+02,-9.50e+02,1.67e+03,3.02e+01,2.74e+02,7.38e+02,2.65e+03
574,1.03e+03,6.59e+02,1.58e+03,-1.24e+03,-2.26e+03,7.57e+02,4.73e+03
575,3.65e+02,4.46e+02,2.41e+03,-5.55e+02,-1.02e+03,1.61e+03,3.99e+03
576,-6.94e+01,-4.59e+02,1.07e+03,5.77e+01,4.26e+01,1.24e+03,2.55e+03
577,3.79e+02,5.31e+02,7.27e+02,-1.15e+03,-1.39e+03,5.70e+02,3.30e+03
578,2.19e+01,5.80e+02,1.04e+03,-5.57e+02,-6.66e+02,1.24e+03,2.77e+03
579,3.70e+01,1.27e+01,5.25e+02,-8.44e+01,-9.32e+01,1.17e+03,2.10e+03
580,1.84e+02,3.64e+02,3.21e+02,-9.09e+02,-9.15e+02,3.14e+02,2.31e+03
581,5.11e+01,4.69e+02,4.36e+02,-5.07e+02,-5.21e+02,7.40e+02,1.84e+03
582,6.67e-01,3.64e+01,1.34e+02,-8.21e+01,-1.23e+02,8.51e+02,1.50e+03
583,8.18e+02,3.42e+02,4.36e+02,-6.80e+02,-8.72e+02,9.71e+01,1.97e+03
584,1.99e+02,1.20e+02,2.57e+02,-2.66e+02,-6.17e+02,2.52e+02,1.25e+03
585,2.90e+01,1.21e+01,8.49e+01,-1.22e+01,-2.45e+02,3.68e+02,7.69e+02
586,-7.49e+02,-2.60e+02,-4.07e+02,-4.53e+02,7.64e+02,4.49e+01,1.60e+03
587,-3.30e+02,-6.34e+01,-3.08e+02,-1.83e+02,5.61e+02,1.30e+02,1.08e+03
588,-7.57e+01,4.28e+01,-9.42e+01,-1.74e+01,2.03e+02,2.13e+02,5.27e+02
589,-2.26e+02,-1.90e+02,-2.64e+02,-5.29e+02,7.63e+02,1.63e+02,1.63e+03
590,-1.82e+02,-1.71e+02,-3.46e+02,-3.39e+02,4.98e+02,4.10e+02,1.27e+03
591,-4.75e+01,1.15e+02,-7.52e+01,-8.92e+01,1.41e+02,5.37e+02,9.90e+02
592,-1.46e+02,-1.58e+02,-4.07e+02,-5.59e+02,9.86e+02,2.76e+02,2.04e+03
593,-3.69e+01,-8.49e+01,-6.28e+02,-3.09e+02,5.58e+02,6.44e+02,1.67e+03
594,7.17e+00,2.53e+02,-2.70e+02,-6.43e+01,1.01e+02,7.18e+02,1.34e+03
595,-1.70e+02,-9.90e+01,-6.99e+02,-4.88e+02,1.33e+03,3.14e+02,2.58e+03
596,5.47e+01,1.60e+02,-1.10e+03,-2.03e+02,6.13e+02,6.75e+02,2.02e+03
597,3.17e+01,5.29e+02,-5.17e+02,-3.07e+00,1.70e+01,6.63e+02,1.46e+03
598,-1.74e+02,1.97e+01,-9.65e+02,-2.41e+02,1.57e+03,1.80e+02,2.91e+03
599,8.81e+01,4.27e+02,-1.55e+03,-8.64e+01,5.89e+02,3.55e+02,2.19e+03
600,1.34e+02,8.84e+02,-6.85e+02,1.81e+01,-9.71e+01,2.83e+02,1.46e+03
601,-1.28e+02,1.15e+02,-9.79e+02,1.21e+02,1.46e+03,-1.14e+02,2.73e+03
602,7.17e+01,5.43e+02,-1.61e+03,-1.90e+00,4.65e+02,-2.77e+02,2.17e+03
603,2.05e+02,9.57e+02,-6.70e+02,-4.08e+01,-1.70e+02,-3.59e+02,1.57e+03
604,-7.82e+01,9.11e+01,-6.37e+02,4.57e+02,8.97e+02,-4.23e+02,2.00e+03
605,6.40e+01,3.88e+02,-1.03e+03,3.68e+01,2.50e+02,-9.11e+02,2.08e+03
606,1.32e+02,6.44e+02,-4.06e+02,-1.30e+02,-1.34e+02,-9.39e+02,1.89e+03
607,1.24e-03,4.78e-04,1.22e-03,5.97e+02,-2.58e-03,-5.53e+02,1.41e+03
608,7.66e-04,1.84e-04,2.06e-03,4.62e+01,-1.98e-03,-1.18e+03,2.04e+03
609,1.76e-04,-1.68e-04,2.03e-03,-1.72e+02,-7.39e-04,-1.18e+03,2.06e+03
610,7.82e+01,-9.11e+01,6.37e+02,4.57e+02,-8.97e+02,-4.23e+02,2.00e+03
611,-6.40e+01,-3.88e+02,1.03e+03,3.68e+01,-2.50e+02,-9.11e+02,2.08e+03
612,-1.32e+02,-6.44e+02,4.06e+02,-1.30e+02,1.34e+02,-9.39e+02,1.89e+03
613,1.28e+02,-1.15e+02,9.79e+02,1.21e+02,-1.46e+03,-1.14e+02,2.73e+03
614,-7.17e+01,-5.43e+02,1.61e+03,-1.90e+00,-4.65e+02,-2.77e+02,2.17e+03
615,-2.05e+02,-9.57e+02,6.70e+02,-4.08e+01,1.70e+02,-3.59e+02,1.57e+03
616,1.74e+02,-1.97e+01,9.65e+02,-2.41e+02,-1.57e+03,1.80e+02,2.91e+03
617,-8.81e+01,-4.27e+02,1.55e+03,-8.64e+01,-5.89e+02,3.55e+02,2.19e+03
618,-1.34e+02,-8.84e+02,6.85e+02,1.81e+01,9.71e+01,2.83e+02,1.46e+03
619,1.70e+02,9.90e+01,6.99e+02,-4.88e+02,-1.33e+03,3.14e+02,2.58e+03
620,-5.47e+01,-1.60e+02,1.10e+03,-2.03e+02,-6.13e+02,6.75e+02,2.02e+03
621,-3.17e+01,-5.29e+02,5.17e+02,-3.07e+00,-1.70e+01,6.63e+02,1.46e+03
622,1.46e+02,1.58e+02,4.07e+02,-5.59e+02,-9.86e+02,2.76e+02,2.04e+03
623,3.69e+01,8.49e+01,6.28e+02,-3.09e+02,-5.58e+02,6.44e+02,1.67e+03
624,-7.17e+00,-2.53e+02,2.70e+02,-6.43e+01,-1.01e+02,7.18e+02,1.34e+03
625,2.26e+02,1.90e+02,2.64e+02,-5.29e+02,-7.63e+02,1.63e+02,1.63e+03
626,1.82e+02,1.71e+02,3.46e+02,-3.39e+02,-4.98e+02,4.10e+02,1.27e+03
627,4.75e+01,-1.15e+02,7.52e+01,-8.92e+01,-1.41e+02,5.37e+02,9.90e+02
628,7.49e+02,2.60e+02,4.07e+02,-4.53e+02,-7.64e+02,4.49e+01,1.60e+03
629,3.30e+02,6.34e+01,3.08e+02,-1.83e+02,-5.61e+02,1.30e+02,1.08e+03
630,7.57e+01,-4.28e+01,9.42e+01,-1.74e+01,-2.03e+02,2.13e+02,5.27e+02
631,-1.23e+03,-3.78e+02,-4.14e+02,-3.57e+02,6.13e+02,-8.91e+00,1.49e+03
632,-4.11e+02,7.97e+00,-7.19e+01,-1.24e+02,2.80e+02,6.15e+00,6.56e+02
633,-7.56e+01,4.47e+01,-2.14e+01,-1.62e+01,5.16e+01,4.43e+01,1.60e+02
634,-8.28e+02,-3.33e+02,-3.04e+02,-3.77e+02,5.95e+02,4.75e+01,1.32e+03
635,-3.27e+02,-7.07e+01,-1.02e+02,-2.74e+02,2.60e+02,1.31e+02,7.33e+02
636,-6.31e+01,1.37e+02,-3.91e+00,-9.32e+01,3.19e+01,1.97e+02,4.21e+02
637,-7.24e+02,-2.48e+02,-3.22e+02,-3.54e+02,6.86e+02,8.87e+01,1.42e+03
638,-1.71e+02,1.22e+02,-1.52e+02,-2.56e+02,2.88e+02,2.19e+02,8.17e+02
639,-1.23e+01,3.50e+02,-6.24e+01,-1.05e+02,2.31e+01,2.90e+02,6.62e+02
640,-6.49e+02,-1.18e+02,-3.66e+02,-2.37e+02,8.13e+02,9.14e+01,1.54e+03
641,-6.32e+01,4.15e+02,-2.42e+02,-1.55e+02,3.13e+02,2.13e+02,9.21e+02
642,4.61e+01,6.71e+02,-1.19e+02,-5.49e+01,6.17e-01,2.58e+02,8.55e+02
643,-5.53e+02,7.83e-01,-3.93e+02,-1.41e+01,8.71e+02,4.58e+01,1.59e+03
644,4.51e+01,6.61e+02,-3.09e+02,1.52e+00,3.03e+02,9.49e+01,1.01e+03
645,8.26e+01,9.30e+02,-1.61e+02,9.31e+00,-2.74e+01,8.46e+01,1.00e+03
646,-4.07e+02,6.81e+01,-3.49e+02,2.62e+02,7.61e+02,-3.69e+01,1.47e+03
647,1.11e+02,6.96e+02,-2.99e+02,1.67e+02,2.42e+02,-1.07e+02,1.02e+03
648,8.85e+01,9.38e+02,-1.57e+02,6.55e+01,-4.29e+01,-1.86e+02,1.05e+03
649,-2.12e+02,6.38e+01,-2.06e+02,4.90e+02,4.48e+02,-1.18e+02,1.20e+03
650,8.68e+01,4.48e+02,-1.87e+02,2.91e+02,1.34e+02,-2.98e+02,9.37e+02
651,6.00e+01,5.91e+02,-9.74e+01,1.01e+02,-3.24e+01,-4.35e+02,9.96e+02
652,2.14e-03,5.51e-04,8.85e-04,5.78e+02,-1.81e-03,-1.52e+02,1.03e+03
653,6.78e-04,-5.50e-04,4.97e-04,3.36e+02,-8.97e-04,-3.76e+02,8.74e+02
654,2.23e-05,-9.60e-04,3.99e-04,1.12e+02,-1.60e-04,-5.34e+02,9.45e+02
655,2.12e+02,-6.38e+01,2.06e+02,4.90e+02,-4.48e+02,-1.18e+02,1.20e+03
656,-8.68e+01,-4.48e+02,1.87e+02,2.91e+02,-1.34e+02,-2.98e+02,9.37e+02
657,-6.00e+01,-5.91e+02,9.74e+01,1.01e+02,3.24e+01,-4.35e+02,9.96e+02
658,4.07e+02,-6.81e+01,3.49e+02,2.62e+02,-7.61e+02,-3.69e+01,1.47e+03
659,-1.11e+02,-6.96e+02,2.99e+02,1.67e+02,-2.42e+02,-1.07e+02,1.02e+03
660,-8.85e+01,-9.38e+02,1.57e+02,6.55e+01,4.29e+01,-1.86e+02,1.05e+03
661,5.53e+02,-7.82e-01,3.93e+02,-1.41e+01,-8.71e+02,4.58e+01,1.59e+03
662,-4.51e+01,-6.61e+02,3.09e+02,1.52e+00,-3.03e+02,9.49e+01,1.01e+03
663,-8.26e+01,-9.30e+02,1.61e+02,9.31e+00,2.74e+01,8.46e+01,1.00e+03
664,6.49e+02,1.18e+02,3.66e+02,-2.37e+02,-8.13e+02,9.14e+01,1.54e+03
665,6.32e+01,-4.15e+02,2.42e+02,-1.55e+02,-3.13e+02,2.13e+02,9.21e+02
666,-4.61e+01,-6.71e+02,1.19e+02,-5.49e+01,-6.17e-01,2.58e+02,8.55e+02
667,7.24e+02,2.48e+02,3.22e+02,-3.54e+02,-6.86e+02,8.87e+01,1.42e+03
668,1.71e+02,-1.22e+02,1.52e+02,-2.56e+02,-2.88e+02,2.19e+02,8.17e+02
669,1.23e+01,-3.50e+02,6.24e+01,-1.05e+02,-2.31e+01,2.90e+02,6.62e+02
670,8.28e+02,3.33e+02,3.04e+02,-3.77e+02,-5.95e+02,4.75e+01,1.32e+03
671,3.27e+02,7.07e+01,1.02e+02,-2.74e+02,-2.60e+02,1.31e+02,7.33e+02
672,6.31e+01,-1.37e+02,3.91e+00,-9.32e+01,-3.19e+01,1.97e+02,4.21e+02
673,1.23e+03,3.78e+02,4.14e+02,-3.57e+02,-6.13e+02,-8.91e+00,1.49e+03
674,4.11e+02,-7.97e+00,7.19e+01,-1.24e+02,-2.80e+02,6.15e+00,6.56e+02
675,7.56e+01,-4.47e+01,2.14e+01,-1.62e+01,-5.16e+01,4.43e+01,1.60e+02
676,-1.81e+05,-3.37e+04,-3.61e+04,-2.18e+04,-2.48e+04,-8.30e+02,1.57e+05
677,-1.52e+05,1.18e+03,-5.98e+02,-6.93e+03,-4.28e+03,1.36e+03,1.53e+05
678,-1.41e+05,-5.50e+02,-1.04e+03,-5.38e+03,-2.61e+02,2.41e+02,1.40e+05
679,-1.31e+05,1.10e+02,1.23e+02,-5.46e+03,6.39e+02,2.12e+02,1.32e+05
680,-1.23e+05,-2.91e+01,2.43e+02,-5.68e+03,7.54e+02,1.41e+02,1.23e+05
681,-1.14e+05,-3.94e+01,3.01e+02,-5.77e+03,6.99e+02,1.05e+02,1.15e+05
682,-1.05e+05,-4.16e+01,2.88e+02,-5.81e+03,6.43e+02,8.19e+01,1.06e+05
683,-9.59e+04,-3.64e+01,2.64e+02,-5.81e+03,6.09e+02,6.89e+01,9.66e+04
684,-8.68e+04,-3.14e+01,2.37e+02,-5.81e+03,5.92e+02,6.06e+01,8.75e+04
685,-7.77e+04,-2.24e+01,2.06e+02,-5.81e+03,5.87e+02,5.46e+01,7.84e+04
686,-6.85e+04,7.92e-01,1.66e+02,-5.83e+03,5.96e+02,4.98e+01,6.94e+04
687,-5.94e+04,5.43e+01,1.07e+02,-5.92e+03,6.34e+02,4.52e+01,6.03e+04
688,-5.00e+04,1.56e+02,2.51e+01,-6.16e+03,7.19e+02,3.80e+01,5.13e+04
689,-4.04e+04,2.73e+02,-6.12e+01,-6.65e+03,8.55e+02,2.40e+01,4.21e+04
690,-3.00e+04,2.43e+02,-5.91e+01,-7.32e+03,9.76e+02,-3.02e-01,3.27e+04
691,-1.89e+04,-2.53e+02,1.85e+02,-7.54e+03,9.32e+02,-3.33e+01,2.30e+04
692,-8.35e+03,-1.35e+03,7.32e+02,-5.93e+03,5.85e+02,-4.55e+01,1.32e+04
693,-1.54e+03,-1.50e+03,1.20e+03,-1.75e+03,1.31e+02,-1.91e+02,4.10e+03
694,-7.03e+04,-1.63e+04,-1.26e+04,-1.29e+03,-1.09e+04,-3.54e+02,5.91e+04
695,-7.42e+04,-6.50e+03,-2.98e+03,-1.11e+04,-2.41e+03,-3.23e+01,7.22e+04
696,-6.98e+04,-5.48e+02,-7.55e+02,-1.18e+04,-7.11e+01,6.40e+02,7.22e+04
697,-6.56e+04,-5.33e+01,-1.69e+02,-1.26e+04,2.81e+02,3.45e+02,6.90e+04
698,-6.13e+04,-2.87e+01,-4.44e+01,-1.30e+04,2.48e+02,1.55e+02,6.53e+04
699,-5.70e+04,-6.15e+01,-1.14e+01,-1.32e+04,1.73e+02,4.12e+01,6.14e+04
700,-5.25e+04,-6.66e+01,-6.26e+00,-1.33e+04,1.25e+02,-1.10e+01,5.73e+04
701,-4.80e+04,-6.38e+01,-5.62e+00,-1.33e+04,1.00e+02,-3.02e+01,5.32e+04
702,-4.34e+04,-5.61e+01,-5.71e+00,-1.33e+04,8.85e+01,-3.43e+01,4.91e+04
703,-3.88e+04,-3.01e+01,-5.98e+00,-1.33e+04,8.38e+01,-3.21e+01,4.51e+04
704,-3.42e+04,4.79e+01,-6.83e+00,-1.33e+04,8.72e+01,-2.75e+01,4.13e+04
705,-2.97e+04,2.37e+02,-7.84e+00,-1.35e+04,1.06e+02,-2.20e+01,3.79e+04
706,-2.53e+04,5.97e+02,-1.02e+01,-1.38e+04,1.48e+02,-1.64e+01,3.50e+04
707,-2.12e+04,1.08e+03,-1.55e+01,-1.45e+04,2.16e+02,-1.15e+01,3.31e+04
708,-1.74e+04,1.08e+03,-1.04e+02,-1.55e+04,2.94e+02,1.12e+01,3.22e+04
709,-1.32e+04,-7.69e+02,-2.06e+02,-1.62e+04,2.95e+02,6.56e+01,3.08e+04
710,-7.74e+03,-5.40e+03,-7.14e+01,-1.43e+04,1.27e+02,3.79e+01,2.57e+04
711,-1.94e+03,-8.81e+03,8.98e+02,-6.76e+03,2.30e+01,-6.08e+02,1.46e+04
712,-8.95e-02,6.39e-02,-2.30e-03,2.58e+03,2.26e-02,-5.02e+02,4.56e+03
713,-2.22e-01,9.26e-02,-8.89e-03,-8.73e+03,4.75e-02,-7.88e+01,1.51e+04
714,-4.24e-01,7.17e-03,-1.67e-02,-1.38e+04,7.78e-02,5.88e+02,2.39e+04
715,-5.93e-01,-4.15e-01,-2.56e-02,-1.49e+04,7.99e-02,4.63e+02,2.58e+04
716,-3.38e-01,-1.60e+00,-2.93e-02,-1.53e+04,-3.68e-02,2.08e+02,2.66e+04
717,1.35e+00,-4.17e+00,-8.56e-03,-1.56e+04,-4.59e-01,6.17e+01,2.70e+04
718,6.48e+00,-8.46e+00,8.32e-02,-1.57e+04,-1.47e+00,-7.20e+00,2.71e+04
719,1.80e+01,-1.30e+01,3.58e-01,-1.57e+04,-3.34e+00,-3.28e+01,2.72e+04
720,3.80e+01,-1.07e+01,1.09e+00,-1.57e+04,-5.83e+00,-3.93e+01,2.72e+04
721,6.14e+01,1.94e+01,2.92e+00,-1.57e+04,-7.21e+00,-3.80e+01,2.73e+04
722,5.96e+01,1.23e+02,7.36e+00,-1.57e+04,-2.68e+00,-3.34e+01,2.73e+04
723,-5.04e+01,3.82e+02,1.66e+01,-1.57e+04,1.68e+01,-2.49e+01,2.73e+04
724,-4.47e+02,8.97e+02,3.51e+01,-1.58e+04,6.23e+01,-8.17e+00,2.73e+04
725,-1.45e+03,1.64e+03,4.65e+01,-1.59e+04,1.38e+02,2.66e+01,2.76e+04
726,-3.34e+03,2.20e+03,5.64e+01,-1.64e+04,2.30e+02,7.62e+01,2.88e+04
727,-6.24e+03,-1.54e+02,-4.83e+02,-1.81e+04,3.69e+02,2.54e+02,3.19e+04
728,-6.19e+03,-9.31e+03,-8.78e+02,-1.94e+04,2.86e+02,6.33e+02,3.44e+04
729,-1.88e+03,-2.29e+04,1.96e+02,-1.13e+04,-2.39e+02,-3.27e+02,2.96e+04
730,7.03e+04,1.63e+04,1.26e+04,-1.29e+03,1.09e+04,-3.54e+02,5.91e+04
731,7.42e+04,6.50e+03,2.98e+03,-1.11e+04,2.41e+03,-3.23e+01,7.22e+04
732,6.98e+04,5.48e+02,7.55e+02,-1.18e+04,7.12e+01,6.40e+02,7.22e+04
733,6.56e+04,5.28e+01,1.69e+02,-1.26e+04,-2.81e+02,3.45e+02,6.90e+04
734,6.13e+04,2.64e+01,4.46e+01,-1.30e+04,-2.48e+02,1.55e+02,6.53e+04
735,5.70e+04,5.55e+01,1.18e+01,-1.32e+04,-1.75e+02,4.12e+01,6.14e+04
736,5.25e+04,5.42e+01,7.12e+00,-1.33e+04,-1.28e+02,-1.12e+01,5.73e+04
737,4.80e+04,4.42e+01,6.97e+00,-1.33e+04,-1.08e+02,-3.08e+01,5.32e+04
738,4.35e+04,3.83e+01,7.12e+00,-1.33e+04,-1.01e+02,-3.57e+01,4.92e+04
739,3.89e+04,5.24e+01,6.09e+00,-1.33e+04,-9.92e+01,-3.50e+01,4.52e+04
740,3.44e+04,1.19e+02,2.99e+00,-1.33e+04,-9.17e+01,-3.16e+01,4.13e+04
741,2.97e+04,3.00e+02,-1.18e+00,-1.32e+04,-6.45e+01,-2.33e+01,3.74e+04
742,2.50e+04,6.77e+02,-3.21e+00,-1.28e+04,1.51e+00,2.30e-01,3.32e+04
743,1.98e+04,1.36e+03,3.60e+01,-1.23e+04,1.18e+02,5.83e+01,2.86e+04
744,1.38e+04,2.09e+03,9.14e+01,-1.16e+04,2.55e+02,1.94e+02,2.38e+04
745,6.27e+03,2.78e+03,6.40e+02,-1.17e+04,3.12e+02,2.73e+02,2.09e+04
746,-5.74e+03,-8.56e+03,-1.90e+03,-1.79e+04,9.61e+02,1.11e+03,3.17e+04
747,-4.47e+03,-4.40e+04,-2.18e+03,-1.84e+04,1.26e+03,3.04e+03,5.20e+04
748,1.81e+05,3.37e+04,3.61e+04,-2.18e+04,2.48e+04,-8.30e+02,1.57e+05
749,1.52e+05,-1.18e+03,5.98e+02,-6.93e+03,4.28e+03,1.36e+03,1.53e+05
750,1.41e+05,5.50e+02,1.04e+03,-5.38e+03,2.61e+02,2.41e+02,1.40e+05
751,1.31e+05,-1.10e+02,-1.23e+02,-5.46e+03,-6.39e+02,2.12e+02,1.32e+05
752,1.23e+05,2.84e+01,-2.43e+02,-5.68e+03,-7.55e+02,1.41e+02,1.23e+05
753,1.14e+05,3.76e+01,-3.00e+02,-5.78e+03,-7.01e+02,1.05e+02,1.15e+05
754,1.05e+05,3.78e+01,-2.85e+02,-5.81e+03,-6.48e+02,8.18e+01,1.06e+05
755,9.59e+04,3.02e+01,-2.60e+02,-5.83e+03,-6.20e+02,6.85e+01,9.66e+04
756,8.68e+04,2.50e+01,-2.34e+02,-5.84e+03,-6.10e+02,5.94e+01,8.75e+04
757,7.76e+04,2.64e+01,-2.13e+02,-5.84e+03,-6.06e+02,5.15e+01,7.84e+04
758,6.85e+04,4.34e+01,-2.06e+02,-5.82e+03,-5.90e+02,4.36e+01,6.93e+04
759,5.94e+04,9.28e+01,-2.20e+02,-5.73e+03,-5.38e+02,3.68e+01,6.03e+04
760,5.04e+04,2.08e+02,-2.62e+02,-5.50e+03,-4.13e+02,3.62e+01,5.13e+04
761,4.16e+04,3.94e+02,-3.17e+02,-4.96e+03,-1.89e+02,6.39e+01,4.25e+04
762,3.35e+04,8.84e+02,-2.32e+02,-3.90e+03,7.30e+01,1.45e+02,3.39e+04
763,2.65e+04,3.98e+02,-3.76e+01,-2.14e+03,2.12e+01,5.56e+02,2.66e+04
764,2.18e+04,4.70e+03,3.86e+03,1.81e+01,-1.74e+03,-4.30e+02,1.78e+04
765,7.76e+03,-6.90e+04,-1.06e+03,-2.40e+04,-6.85e+03,9.34e+03,8.61e+04
766,-1.57e+05,-2.81e+04,-3.61e+04,-2.37e+04,-8.63e+03,-3.43e+02,1.33e+05
767,-1.52e+05,-2.43e+03,-1.30e+04,-8.62e+03,-6.15e+03,5.21e+02,1.46e+05
768,-1.42e+05,-7.19e+02,-3.59e+03,-5.61e+03,-1.18e+03,4.34e+02,1.41e+05
769,-1.33e+05,-1.27e+01,-9.13e+02,-5.15e+03,4.47e+02,2.44e+02,1.33e+05
770,-1.24e+05,3.32e+01,4.60e+01,-5.07e+03,7.79e+02,1.49e+02,1.24e+05
771,-1.14e+05,3.00e+01,2.62e+02,-5.03e+03,7.81e+02,8.83e+01,1.15e+05
772,-1.05e+05,2.51e+01,2.86e+02,-5.01e+03,7.31e+02,5.57e+01,1.06e+05
773,-9.60e+04,2.15e+01,2.58e+02,-5.00e+03,6.95e+02,3.98e+01,9.65e+04
774,-8.68e+04,1.89e+01,2.24e+02,-4.99e+03,6.77e+02,3.22e+01,8.74e+04
775,-7.77e+04,1.96e+01,1.82e+02,-4.99e+03,6.72e+02,2.83e+01,7.83e+04
776,-6.86e+04,3.04e+01,1.18e+02,-5.00e+03,6.88e+02,2.59e+01,6.92e+04
777,-5.94e+04,6.32e+01,1.75e+01,-5.07e+03,7.38e+02,2.35e+01,6.01e+04
778,-5.00e+04,1.33e+02,-1.13e+02,-5.25e+03,8.36e+02,1.92e+01,5.08e+04
779,-4.01e+04,2.18e+02,-2.06e+02,-5.65e+03,9.68e+02,1.25e+01,4.13e+04
780,-2.94e+04,1.89e+02,-9.86e+01,-6.20e+03,1.06e+03,7.60e+00,3.14e+04
781,-1.81e+04,-2.29e+02,4.00e+02,-6.36e+03,9.71e+02,4.37e+00,2.14e+04
782,-7.69e+03,-1.17e+03,1.22e+03,-4.91e+03,6.37e+02,-5.30e+01,1.17e+04
783,-1.28e+03,-1.30e+03,1.96e+03,-1.34e+03,2.16e+02,-2.90e+02,4.05e+03
784,-5.68e+04,-1.22e+04,-1.06e+04,-3.37e+03,-3.65e+03,2.06e+02,4.63e+04
785,-7.35e+04,-7.95e+03,-8.09e+03,-1.28e+04,-3.02e+03,4.41e+02,6.93e+04
786,-7.12e+04,-8.47e+02,-2.04e+03,-1.26e+04,-5.76e+02,5.68e+02,7.31e+04
787,-6.67e+04,-7.12e+01,-5.25e+02,-1.22e+04,2.12e+02,4.39e+02,6.97e+04
788,-6.19e+04,5.50e+01,-9.40e+00,-1.20e+04,3.05e+02,2.38e+02,6.53e+04
789,-5.72e+04,4.00e+01,9.06e+01,-1.19e+04,2.57e+02,1.05e+02,6.08e+04
790,-5.26e+04,3.26e+01,9.69e+01,-1.19e+04,2.10e+02,3.54e+01,5.65e+04
791,-4.80e+04,2.73e+01,8.36e+01,-1.18e+04,1.81e+02,5.64e+00,5.22e+04
792,-4.34e+04,2.54e+01,7.01e+01,-1.18e+04,1.67e+02,-4.71e+00,4.80e+04
793,-3.88e+04,3.82e+01,5.50e+01,-1.18e+04,1.63e+02,-6.64e+00,4.40e+04
794,-3.43e+04,9.31e+01,3.14e+01,-1.19e+04,1.71e+02,-4.88e+00,4.00e+04
795,-2.97e+04,2.39e+02,-6.74e+00,-1.20e+04,1.99e+02,-9.48e-01,3.63e+04
796,-2.52e+04,5.27e+02,-5.94e+01,-1.22e+04,2.56e+02,5.25e+00,3.31e+04
797,-2.08e+04,9.09e+02,-1.17e+02,-1.28e+04,3.39e+02,1.79e+01,3.06e+04
798,-1.66e+04,8.72e+02,-1.96e+02,-1.36e+04,4.11e+02,4.92e+01,2.90e+04
799,-1.22e+04,-7.88e+02,-2.70e+02,-1.40e+04,4.08e+02,1.15e+02,2.70e+04
800,-6.92e+03,-4.96e+03,-1.39e+02,-1.22e+04,2.53e+02,7.77e+01,2.20e+04
801,-1.66e+03,-8.22e+03,9.33e+02,-5.55e+03,3.81e+01,-5.09e+02,1.27e+04
802,-3.56e-02,5.67e-02,-2.80e-02,7.98e+02,3.14e-02,-8.71e+01,1.39e+03
803,-8.49e-02,7.68e-02,-4.41e-02,-1.00e+04,5.81e-02,2.61e+02,1.74e+04
804,-1.53e-01,1.93e-02,-3.58e-02,-1.45e+04,8.19e-02,5.51e+02,2.52e+04
805,-1.87e-01,-2.89e-01,5.42e-02,-1.46e+04,5.31e-02,4.86e+02,2.53e+04
806,-4.87e-03,-1.19e+00,3.36e-01,-1.44e+04,-1.49e-01,2.59e+02,2.49e+04
807,8.58e-01,-3.17e+00,9.69e-01,-1.42e+04,-7.47e-01,9.47e+01,2.47e+04
808,3.34e+00,-6.55e+00,2.07e+00,-1.42e+04,-2.04e+00,1.13e+01,2.46e+04
809,8.84e+00,-1.03e+01,3.46e+00,-1.42e+04,-4.19e+00,-2.31e+01,2.46e+04
810,1.84e+01,-8.62e+00,4.14e+00,-1.42e+04,-6.57e+00,-3.37e+01,2.46e+04
811,2.92e+01,1.52e+01,1.63e+00,-1.42e+04,-6.59e+00,-3.42e+01,2.46e+04
812,2.49e+01,9.94e+01,-8.29e+00,-1.42e+04,1.95e+00,-2.98e+01,2.46e+04
813,-4.54e+01,3.12e+02,-3.01e+01,-1.42e+04,2.94e+01,-2.00e+01,2.46e+04
814,-3.03e+02,7.36e+02,-6.42e+01,-1.42e+04,8.65e+01,1.52e+00,2.46e+04
815,-9.79e+02,1.35e+03,-1.09e+02,-1.42e+04,1.74e+02,4.53e+01,2.47e+04
816,-2.36e+03,1.74e+03,-1.77e+02,-1.45e+04,2.74e+02,1.35e+02,2.54e+04
817,-4.46e+03,-2.57e+02,-5.80e+02,-1.56e+04,3.39e+02,3.05e+02,2.73e+04
818,-4.69e+03,-8.19e+03,-1.31e+03,-1.61e+04,3.49e+02,5.76e+02,2.86e+04
819,-1.67e+03,-2.10e+04,-1.33e+03,-9.29e+03,9.57e+01,2.53e+02,2.53e+04
820,5.68e+04,1.22e+04,1.06e+04,-3.37e+03,3.65e+03,2.06e+02,4.63e+04
821,7.35e+04,7.95e+03,8.09e+03,-1.28e+04,3.02e+03,4.41e+02,6.93e+04
822,7.12e+04,8.47e+02,2.04e+03,-1.26e+04,5.76e+02,5.68e+02,7.31e+04
823,6.67e+04,7.08e+01,5.26e+02,-1.22e+04,-2.12e+02,4.39e+02,6.97e+04
824,6.19e+04,-5.66e+01,1.04e+01,-1.20e+04,-3.05e+02,2.38e+02,6.53e+04
825,5.72e+04,-4.44e+01,-8.81e+01,-1.19e+04,-2.59e+02,1.05e+02,6.08e+04
826,5.26e+04,-4.19e+01,-9.19e+01,-1.19e+04,-2.14e+02,3.53e+01,5.65e+04
827,4.80e+04,-4.23e+01,-7.60e+01,-1.19e+04,-1.91e+02,5.07e+00,5.23e+04
828,4.34e+04,-3.93e+01,-6.32e+01,-1.19e+04,-1.82e+02,-6.18e+00,4.81e+04
829,3.88e+04,-2.09e+01,-5.98e+01,-1.19e+04,-1.76e+02,-9.58e+00,4.40e+04
830,3.43e+04,3.93e+01,-7.23e+01,-1.18e+04,-1.62e+02,-8.99e+00,4.00e+04
831,2.97e+04,1.92e+02,-1.07e+02,-1.17e+04,-1.21e+02,-1.82e+00,3.60e+04
832,2.51e+04,5.07e+02,-1.59e+02,-1.15e+04,-3.48e+01,2.31e+01,3.19e+04
833,2.03e+04,1.06e+03,-1.78e+02,-1.09e+04,9.77e+01,8.93e+01,2.75e+04
834,1.51e+04,1.69e+03,-5.37e+01,-1.01e+04,2.13e+02,2.14e+02,2.26e+04
835,8.54e+03,1.88e+03,3.42e+02,-9.73e+03,1.78e+02,4.43e+02,1.85e+04
836,-9.01e+02,-6.73e+03,-1.16e+03,-1.33e+04,-9.02e+01,9.00e+02,2.38e+04
837,-3.27e+03,-3.62e+04,-6.33e+03,-1.30e+04,1.79e+02,2.12e+03,3.89e+04
838,1.57e+05,2.81e+04,3.61e+04,-2.37e+04,8.63e+03,-3.43e+02,1.33e+05
839,1.52e+05,2.43e+03,1.30e+04,-8.62e+03,6.15e+03,5.21e+02,1.46e+05
840,1.42e+05,7.19e+02,3.59e+03,-5.61e+03,1.18e+03,4.34e+02,1.41e+05
841,1.33e+05,1.27e+01,9.13e+02,-5.15e+03,-4.47e+02,2.44e+02,1.33e+05
842,1.24e+05,-3.36e+01,-4.43e+01,-5.07e+03,-7.80e+02,1.49e+02,1.24e+05
843,1.14e+05,-3.10e+01,-2.58e+02,-5.04e+03,-7.83e+02,8.83e+01,1.15e+05
844,1.05e+05,-2.72e+01,-2.77e+02,-5.02e+03,-7.38e+02,5.56e+01,1.06e+05
845,9.59e+04,-2.51e+01,-2.47e+02,-5.01e+03,-7.08e+02,3.93e+01,9.65e+04
846,8.68e+04,-2.30e+01,-2.18e+02,-5.02e+03,-6.95e+02,3.09e+01,8.73e+04
847,7.76e+04,-1.79e+01,-2.06e+02,-5.02e+03,-6.85e+02,2.55e+01,7.82e+04
848,6.85e+04,-3.74e+00,-2.29e+02,-5.01e+03,-6.59e+02,2.16e+01,6.91e+04
849,5.94e+04,3.19e+01,-3.04e+02,-4.95e+03,-5.88e+02,2.11e+01,6.01e+04
850,5.05e+04,1.14e+02,-4.22e+02,-4.75e+03,-4.42e+02,3.25e+01,5.14e+04
851,4.22e+04,2.65e+02,-4.87e+02,-4.28e+03,-2.22e+02,7.53e+01,4.30e+04
852,3.50e+04,6.38e+02,-3.03e+01,-3.28e+03,-9.85e+01,1.86e+02,3.52e+04
853,2.92e+04,5.97e+02,1.56e+03,-1.39e+03,-7.80e+02,2.88e+02,2.82e+04
854,2.45e+04,2.82e+03,8.33e+03,4.66e+02,-3.58e+03,4.93e+02,2.05e+04
855,9.43e+03,-4.46e+04,-6.00e+02,-1.26e+04,-3.31e+03,-4.11e+02,5.46e+04
856,-1.59e+05,-2.96e+04,-3.71e+04,-2.46e+04,-2.19e-09,-2.85e-10,1.33e+05
857,-1.48e+05,-1.16e+03,-1.44e+04,-8.78e+03,-3.48e-09,1.18e-11,1.42e+05
858,-1.42e+05,-1.36e+03,-6.10e+03,-5.79e+03,-4.02e-09,6.79e-11,1.39e+05
859,-1.33e+05,-3.63e+01,-1.41e+03,-5.13e+03,-3.90e-09,9.25e-11,1.33e+05
860,-1.24e+05,1.69e+00,-1.36e+02,-4.98e+03,-3.89e-09,2.94e-11,1.24e+05
861,-1.14e+05,2.48e+01,2.34e+02,-4.91e+03,-3.82e-09,1.28e-11,1.15e+05
862,-1.05e+05,1.84e+01,2.81e+02,-4.87e+03,-3.66e-09,3.39e-11,1.06e+05
863,-9.60e+04,1.43e+01,2.57e+02,-4.85e+03,-3.68e-09,-2.35e-10,9.65e+04
864,-8.68e+04,1.09e+01,2.19e+02,-4.83e+03,-3.95e-09,-8.42e-10,8.74e+04
865,-7.77e+04,1.06e+01,1.70e+02,-4.83e+03,-3.82e-09,-5.53e-10,7.83e+04
866,-6.86e+04,1.90e+01,9.29e+01,-4.84e+03,-3.38e-09,3.63e-10,6.92e+04
867,-5.94e+04,4.75e+01,-2.90e+01,-4.90e+03,-3.40e-09,1.47e-09,6.00e+04
868,-4.99e+04,1.13e+02,-1.81e+02,-5.08e+03,-2.81e-09,1.51e-09,5.07e+04
869,-4.00e+04,1.98e+02,-2.75e+02,-5.46e+03,-1.51e-09,1.09e-09,4.10e+04
870,-2.92e+04,1.85e+02,-1.11e+02,-5.99e+03,-1.10e-09,-1.11e-09,3.11e+04
871,-1.80e+04,-1.99e+02,4.90e+02,-6.12e+03,-3.77e-10,-5.86e-10,2.10e+04
872,-7.64e+03,-1.11e+03,1.43e+03,-4.71e+03,-3.62e-10,1.47e-09,1.15e+04
873,-1.25e+03,-1.30e+03,2.39e+03,-1.31e+03,-8.93e-11,-2.15e-10,4.31e+03
874,-5.74e+04,-1.30e+04,-1.05e+04,-3.64e+03,-1.09e-09,-1.93e-11,4.61e+04
875,-7.17e+04,-7.82e+03,-8.68e+03,-1.33e+04,-2.33e-09,1.52e-11,6.75e+04
876,-7.13e+04,-1.06e+03,-3.12e+03,-1.28e+04,-2.76e-09,3.07e-11,7.27e+04
877,-6.69e+04,-8.25e+01,-7.22e+02,-1.22e+04,-2.70e-09,1.55e-10,6.98e+04
878,-6.21e+04,6.06e+01,-3.01e+01,-1.18e+04,-2.66e-09,1.33e-10,6.53e+04
879,-5.73e+04,4.30e+01,1.28e+02,-1.16e+04,-2.69e-09,8.06e-11,6.08e+04
880,-5.26e+04,3.03e+01,1.36e+02,-1.15e+04,-2.66e-09,-9.76e-11,5.63e+04
881,-4.80e+04,2.25e+01,1.18e+02,-1.14e+04,-2.67e-09,-5.31e-11,5.20e+04
882,-4.34e+04,1.93e+01,9.79e+01,-1.14e+04,-2.66e-09,-3.29e-11,4.78e+04
883,-3.88e+04,3.02e+01,7.54e+01,-1.14e+04,-3.00e-09,-7.19e-10,4.36e+04
884,-3.43e+04,8.03e+01,4.03e+01,-1.14e+04,-2.45e-09,4.11e-10,3.96e+04
885,-2.97e+04,2.17e+02,-1.62e+01,-1.15e+04,-2.47e-09,1.05e-09,3.59e+04
886,-2.51e+04,4.89e+02,-9.40e+01,-1.18e+04,-2.15e-09,6.69e-10,3.25e+04
887,-2.07e+04,8.57e+02,-1.70e+02,-1.23e+04,-1.32e-09,-1.99e-10,2.99e+04
888,-1.64e+04,8.31e+02,-2.50e+02,-1.30e+04,-9.08e-10,-1.34e-09,2.80e+04
889,-1.19e+04,-7.13e+02,-2.95e+02,-1.34e+04,-9.13e-10,-2.65e-10,2.58e+04
890,-6.71e+03,-4.72e+03,-1.93e+02,-1.16e+04,-2.20e-10,1.15e-09,2.09e+04
891,-1.65e+03,-8.09e+03,8.94e+02,-5.36e+03,2.06e-10,1.99e-09,1.23e+04
892,-1.00e-02,5.41e-02,-4.14e-02,6.30e+02,-3.40e-10,5.68e-13,1.09e+03
893,-2.60e-02,7.58e-02,-6.03e-02,-1.04e+04,-1.38e-09,1.48e-11,1.80e+04
894,-5.19e-02,3.03e-02,-3.97e-02,-1.48e+04,-1.79e-09,1.37e-11,2.56e+04
895,-7.14e-02,-2.38e-01,1.09e-01,-1.46e+04,-1.74e-09,1.20e-10,2.53e+04
896,-8.26e-03,-1.04e+00,5.48e-01,-1.41e+04,-1.58e-09,4.34e-10,2.45e+04
897,3.69e-01,-2.86e+00,1.50e+00,-1.39e+04,-1.60e-09,5.98e-10,2.40e+04
898,1.61e+00,-6.04e+00,3.10e+00,-1.37e+04,-1.74e-09,1.66e-10,2.38e+04
899,4.69e+00,-9.68e+00,4.97e+00,-1.37e+04,-1.62e-09,-1.63e-10,2.37e+04
900,1.07e+01,-8.65e+00,5.41e+00,-1.37e+04,-1.49e-09,-1.04e-11,2.37e+04
901,1.87e+01,1.26e+01,2.84e-01,-1.37e+04,-1.68e-09,-6.39e-10,2.37e+04
902,1.83e+01,9.03e+01,-1.72e+01,-1.37e+04,-1.56e-09,-1.90e-10,2.37e+04
903,-2.89e+01,2.89e+02,-5.48e+01,-1.37e+04,-1.52e-09,1.11e-09,2.37e+04
904,-2.24e+02,6.92e+02,-1.12e+02,-1.37e+04,-1.62e-09,-2.87e-10,2.37e+04
905,-7.83e+02,1.27e+03,-1.88e+02,-1.37e+04,-5.46e-10,-5.25e-10,2.37e+04
906,-1.96e+03,1.67e+03,-2.61e+02,-1.38e+04,-7.21e-10,-4.87e-10,2.42e+04
907,-3.93e+03,-2.32e+02,-6.94e+02,-1.47e+04,-5.61e-10,1.66e-10,2.58e+04
908,-4.16e+03,-7.62e+03,-1.48e+03,-1.51e+04,-3.20e-10,8.80e-10,2.67e+04
909,-1.68e+03,-1.99e+04,-2.29e+03,-8.74e+03,-3.66e-10,3.23e-09,2.35e+04
910,5.74e+04,1.30e+04,1.05e+04,-3.64e+03,4.33e-10,-2.00e-11,4.61e+04
911,7.17e+04,7.82e+03,8.68e+03,-1.33e+04,-3.90e-10,1.32e-11,6.75e+04
912,7.13e+04,1.06e+03,3.12e+03,-1.28e+04,-7.74e-10,3.79e-11,7.27e+04
913,6.69e+04,8.22e+01,7.22e+02,-1.22e+04,-7.46e-10,1.21e-10,6.98e+04
914,6.21e+04,-6.20e+01,3.15e+01,-1.18e+04,-5.19e-10,4.32e-10,6.53e+04
915,5.73e+04,-4.69e+01,-1.24e+02,-1.16e+04,-4.74e-10,6.00e-10,6.08e+04
916,5.26e+04,-3.88e+01,-1.29e+02,-1.15e+04,-5.87e-10,2.60e-10,5.63e+04
917,4.80e+04,-3.65e+01,-1.07e+02,-1.15e+04,-5.68e-10,-4.33e-10,5.20e+04
918,4.34e+04,-3.32e+01,-8.89e+01,-1.14e+04,-4.66e-10,-5.57e-10,4.78e+04
919,3.88e+04,-1.71e+01,-8.50e+01,-1.14e+04,-3.70e-10,-5.30e-10,4.36e+04
920,3.43e+04,3.68e+01,-1.05e+02,-1.14e+04,-5.42e-10,-3.09e-10,3.96e+04
921,2.97e+04,1.77e+02,-1.57e+02,-1.13e+04,-7.32e-10,-8.22e-11,3.56e+04
922,2.52e+04,4.70e+02,-2.37e+02,-1.10e+04,-6.53e-10,-2.13e-10,3.15e+04
923,2.06e+04,1.00e+03,-2.67e+02,-1.05e+04,-6.46e-11,-4.99e-10,2.72e+04
924,1.55e+04,1.59e+03,-1.37e+02,-9.58e+03,-3.74e-10,-2.05e-10,2.23e+04
925,9.37e+03,1.96e+03,5.62e+02,-9.01e+03,-2.50e-10,7.72e-10,1.76e+04
926,-5.26e+02,-6.19e+03,-1.18e+03,-1.23e+04,-6.14e-10,2.52e-09,2.20e+04
927,-2.13e+03,-3.28e+04,-5.47e+03,-1.23e+04,-8.32e-10,3.28e-09,3.60e+04
928,1.59e+05,2.96e+04,3.71e+04,-2.46e+04,1.63e-09,-1.31e-10,1.33e+05
929,1.48e+05,1.16e+03,1.44e+04,-8.78e+03,7.75e-10,3.26e-11,1.42e+05
930,1.42e+05,1.36e+03,6.10e+03,-5.78e+03,3.87e-10,4.70e-11,1.39e+05
931,1.33e+05,3.63e+01,1.41e+03,-5.13e+03,1.58e-10,1.31e-10,1.33e+05
932,1.24e+05,-1.86e+00,1.39e+02,-4.99e+03,2.75e-10,1.23e-10,1.24e+05
933,1.14e+05,-2.55e+01,-2.28e+02,-4.91e+03,6.45e-10,3.36e-10,1.15e+05
934,1.05e+05,-2.00e+01,-2.70e+02,-4.87e+03,6.23e-10,3.75e-10,1.06e+05
935,9.60e+04,-1.75e+01,-2.43e+02,-4.86e+03,6.05e-10,-3.26e-10,9.65e+04
936,8.68e+04,-1.53e+01,-2.13e+02,-4.86e+03,2.38e-10,-7.21e-10,8.73e+04
937,7.76e+04,-1.21e+01,-2.07e+02,-4.86e+03,1.02e-11,-4.73e-10,7.82e+04
938,6.85e+04,-2.42e+00,-2.47e+02,-4.85e+03,3.10e-10,1.77e-10,6.91e+04
939,5.94e+04,2.51e+01,-3.51e+02,-4.79e+03,1.03e-10,-3.57e-10,6.02e+04
940,5.07e+04,9.69e+01,-5.06e+02,-4.59e+03,2.85e-10,-5.54e-10,5.15e+04
941,4.26e+04,2.42e+02,-5.40e+02,-4.11e+03,-3.61e-11,8.23e-10,4.33e+04
942,3.56e+04,6.64e+02,1.29e+02,-3.06e+03,-7.01e-10,4.00e-10,3.56e+04
943,2.97e+04,7.26e+02,2.91e+03,-1.26e+03,-1.12e-09,5.52e-10,2.80e+04
944,2.29e+04,3.55e+03,9.51e+03,9.30e+02,-1.04e-09,2.61e-09,1.73e+04
945,7.71e+03,-4.68e+04,-2.58e+03,-1.45e+04,-3.27e-10,8.41e-10,5.60e+04
946,-1.57e+05,-2.81e+04,-3.61e+04,-2.37e+04,8.63e+03,3.43e+02,1.33e+05
947,-1.52e+05,-2.43e+03,-1.30e+04,-8.62e+03,6.15e+03,-5.21e+02,1.46e+05
948,-1.42e+05,-7.19e+02,-3.59e+03,-5.61e+03,1.18e+03,-4.34e+02,1.41e+05
949,-1.33e+05,-1.27e+01,-9.13e+02,-5.15e+03,-4.47e+02,-2.44e+02,1.33e+05
950,-1.24e+05,3.32e+01,4.60e+01,-5.07e+03,-7.79e+02,-1.49e+02,1.24e+05
951,-1.14e+05,3.00e+01,2.62e+02,-5.03e+03,-7.81e+02,-8.83e+01,1.15e+05
952,-1.05e+05,2.51e+01,2.86e+02,-5.01e+03,-7.31e+02,-5.57e+01,1.06e+05
953,-9.60e+04,2.15e+01,2.58e+02,-5.00e+03,-6.95e+02,-3.98e+01,9.65e+04
954,-8.68e+04,1.89e+01,2.24e+02,-4.99e+03,-6.77e+02,-3.22e+01,8.74e+04
955,-7.77e+04,1.96e+01,1.82e+02,-4.99e+03,-6.72e+02,-2.83e+01,7.83e+04
956,-6.86e+04,3.04e+01,1.18e+02,-5.00e+03,-6.88e+02,-2.59e+01,6.92e+04
957,-5.94e+04,6.32e+01,1.75e+01,-5.07e+03,-7.38e+02,-2.35e+01,6.01e+04
958,-5.00e+04,1.33e+02,-1.13e+02,-5.25e+03,-8.36e+02,-1.92e+01,5.08e+04
959,-4.01e+04,2.18e+02,-2.06e+02,-5.65e+03,-9.68e+02,-1.25e+01,4.13e+04
960,-2.94e+04,1.89e+02,-9.86e+01,-6.20e+03,-1.06e+03,-7.60e+00,3.14e+04
961,-1.81e+04,-2.29e+02,4.00e+02,-6.36e+03,-9.71e+02,-4.37e+00,2.14e+04
962,-7.69e+03,-1.17e+03,1.22e+03,-4.91e+03,-6.37e+02,5.30e+01,1.17e+04
963,-1.28e+03,-1.30e+03,1.96e+03,-1.34e+03,-2.16e+02,2.90e+02,4.05e+03
964,-5.68e+04,-1.22e+04,-1.06e+04,-3.37e+03,3.65e+03,-2.06e+02,4.63e+04
965,-7.35e+04,-7.95e+03,-8.09e+03,-1.28e+04,3.02e+03,-4.41e+02,6.93e+04
966,-7.12e+04,-8.47e+02,-2.04e+03,-1.26e+04,5.76e+02,-5.68e+02,7.31e+04
967,-6.67e+04,-7.12e+01,-5.25e+02,-1.22e+04,-2.12e+02,-4.39e+02,6.97e+04
968,-6.19e+04,5.50e+01,-9.40e+00,-1.20e+04,-3.05e+02,-2.38e+02,6.53e+04
969,-5.72e+04,4.00e+01,9.06e+01,-1.19e+04,-2.57e+02,-1.05e+02,6.08e+04
970,-5.26e+04,3.26e+01,9.69e+01,-1.19e+04,-2.10e+02,-3.54e+01,5.65e+04
971,-4.80e+04,2.73e+01,8.36e+01,-1.18e+04,-1.81e+02,-5.64e+00,5.22e+04
972,-4.34e+04,2.54e+01,7.01e+01,-1.18e+04,-1.67e+02,4.71e+00,4.80e+04
973,-3.88e+04,3.82e+01,5.50e+01,-1.18e+04,-1.63e+02,6.64e+00,4.40e+04
974,-3.43e+04,9.31e+01,3.14e+01,-1.19e+04,-1.71e+02,4.88e+00,4.00e+04
975,-2.97e+04,2.39e+02,-6.74e+00,-1.20e+04,-1.99e+02,9.48e-01,3.63e+04
976,-2.52e+04,5.27e+02,-5.94e+01,-1.22e+04,-2.56e+02,-5.25e+00,3.31e+04
977,-2.08e+04,9.09e+02,-1.17e+02,-1.28e+04,-3.39e+02,-1.79e+01,3.06e+04
978,-1.66e+04,8.72e+02,-1.96e+02,-1.36e+04,-4.11e+02,-4.92e+01,2.90e+04
979,-1.22e+04,-7.88e+02,-2.70e+02,-1.40e+04,-4.08e+02,-1.15e+02,2.70e+04
980,-6.92e+03,-4.96e+03,-1.39e+02,-1.22e+04,-2.53e+02,-7.77e+01,2.20e+04
981,-1.66e+03,-8.22e+03,9.33e+02,-5.55e+03,-3.81e+01,5.09e+02,1.27e+04
982,-3.56e-02,5.67e-02,-2.80e-02,7.98e+02,-3.14e-02,8.71e+01,1.39e+03
983,-8.49e-02,7.68e-02,-4.41e-02,-1.00e+04,-5.81e-02,-2.61e+02,1.74e+04
984,-1.53e-01,1.93e-02,-3.58e-02,-1.45e+04,-8.19e-02,-5.51e+02,2.52e+04
985,-1.87e-01,-2.89e-01,5.42e-02,-1.46e+04,-5.31e-02,-4.86e+02,2.53e+04
986,-4.87e-03,-1.19e+00,3.36e-01,-1.44e+04,1.49e-01,-2.59e+02,2.49e+04
987,8.58e-01,-3.17e+00,9.69e-01,-1.42e+04,7.47e-01,-9.47e+01,2.47e+04
988,3.34e+00,-6.55e+00,2.07e+00,-1.42e+04,2.04e+00,-1.13e+01,2.46e+04
989,8.84e+00,-1.03e+01,3.46e+00,-1.42e+04,4.19e+00,2.31e+01,2.46e+04
990,1.84e+01,-8.62e+00,4.14e+00,-1.42e+04,6.57e+00,3.37e+01,2.46e+04
991,2.92e+01,1.52e+01,1.63e+00,-1.42e+04,6.59e+00,3.42e+01,2.46e+04
992,2.49e+01,9.94e+01,-8.29e+00,-1.42e+04,-1.95e+00,2.98e+01,2.46e+04
993,-4.54e+01,3.12e+02,-3.01e+01,-1.42e+04,-2.94e+01,2.00e+01,2.46e+04
994,-3.03e+02,7.36e+02,-6.42e+01,-1.42e+04,-8.65e+01,-1.52e+00,2.46e+04
995,-9.79e+02,1.35e+03,-1.09e+02,-1.42e+04,-1.74e+02,-4.53e+01,2.47e+04
996,-2.36e+03,1.74e+03,-1.77e+02,-1.45e+04,-2.74e+02,-1.35e+02,2.54e+04
997,-4.46e+03,-2.57e+02,-5.80e+02,-1.56e+04,-3.39e+02,-3.05e+02,2.73e+04
998,-4.69e+03,-8.19e+03,-1.31e+03,-1.61e+04,-3.49e+02,-5.76e+02,2.86e+04
999,-1.67e+03,-2.10e+04,-1.33e+03,-9.29e+03,-9.57e+01,-2.53e+02,2.53e+04
1000,5.68e+04,1.22e+04,1.06e+04,-3.37e+03,-3.65e+03,-2.06e+02,4.63e+04
1001,7.35e+04,7.95e+03,8.09e+03,-1.28e+04,-3.02e+03,-4.41e+02,6.93e+04
1002,7.12e+04,8.47e+02,2.04e+03,-1.26e+04,-5.76e+02,-5.68e+02,7.31e+04
1003,6.67e+04,7.08e+01,5.26e+02,-1.22e+04,2.12e+02,-4.39e+02,6.97e+04
1004,6.19e+04,-5.66e+01,1.04e+01,-1.20e+04,3.05e+02,-2.38e+02,6.53e+04
1005,5.72e+04,-4.44e+01,-8.81e+01,-1.19e+04,2.59e+02,-1.05e+02,6.08e+04
1006,5.26e+04,-4.19e+01,-9.19e+01,-1.19e+04,2.14e+02,-3.53e+01,5.65e+04
1007,4.80e+04,-4.23e+01,-7.60e+01,-1.19e+04,1.91e+02,-5.07e+00,5.23e+04
1008,4.34e+04,-3.93e+01,-6.32e+01,-1.19e+04,1.82e+02,6.18e+00,4.81e+04
1009,3.88e+04,-2.09e+01,-5.98e+01,-1.19e+04,1.76e+02,9.58e+00,4.40e+04
1010,3.43e+04,3.93e+01,-7.23e+01,-1.18e+04,1.62e+02,8.99e+00,4.00e+04
1011,2.97e+04,1.92e+02,-1.07e+02,-1.17e+04,1.21e+02,1.82e+00,3.60e+04
1012,2.51e+04,5.07e+02,-1.59e+02,-1.15e+04,3.48e+01,-2.31e+01,3.19e+04
1013,2.03e+04,1.06e+03,-1.78e+02,-1.09e+04,-9.77e+01,-8.93e+01,2.75e+04
1014,1.51e+04,1.69e+03,-5.37e+01,-1.01e+04,-2.13e+02,-2.14e+02,2.26e+04
1015,8.54e+03,1.88e+03,3.42e+02,-9.73e+03,-1.78e+02,-4.43e+02,1.85e+04
1016,-9.01e+02,-6.73e+03,-1.16e+03,-1.33e+04,9.02e+01,-9.00e+02,2.38e+04
1017,-3.27e+03,-3.62e+04,-6.33e+03,-1.30e+04,-1.79e+02,-2.12e+03,3.89e+04
1018,1.57e+05,2.81e+04,3.61e+04,-2.37e+04,-8.63e+03,3.43e+02,1.33e+05
1019,1.52e+05,2.43e+03,1.30e+04,-8.62e+03,-6.15e+03,-5.21e+02,1.46e+05
1020,1.42e+05,7.19e+02,3.59e+03,-5.61e+03,-1.18e+03,-4.34e+02,1.41e+05
1021,1.33e+05,1.27e+01,9.13e+02,-5.15e+03,4.47e+02,-2.44e+02,1.33e+05
1022,1.24e+05,-3.36e+01,-4.43e+01,-5.07e+03,7.80e+02,-1.49e+02,1.24e+05
1023,1.14e+05,-3.10e+01,-2.58e+02,-5.04e+03,7.83e+02,-8.83e+01,1.15e+05
1024,1.05e+05,-2.72e+01,-2.77e+02,-5.02e+03,7.38e+02,-5.56e+01,1.06e+05
1025,9.59e+04,-2.51e+01,-2.47e+02,-5.01e+03,7.08e+02,-3.93e+01,9.65e+04
1026,8.68e+04,-2.30e+01,-2.18e+02,-5.02e+03,6.95e+02,-3.09e+01,8.73e+04
1027,7.76e+04,-1.79e+01,-2.06e+02,-5.02e+03,6.85e+02,-2.55e+01,7.82e+04
1028,6.85e+04,-3.74e+00,-2.29e+02,-5.01e+03,6.59e+02,-2.16e+01,6.91e+04
1029,5.94e+04,3.19e+01,-3.04e+02,-4.95e+03,5.88e+02,-2.11e+01,6.01e+04
1030,5.05e+04,1.14e+02,-4.22e+02,-4.75e+03,4.42e+02,-3.25e+01,5.14e+04
1031,4.22e+04,2.65e+02,-4.87e+02,-4.28e+03,2.22e+02,-7.53e+01,4.30e+04
1032,3.50e+04,6.38e+02,-3.03e+01,-3.28e+03,9.85e+01,-1.86e+02,3.52e+04
1033,2.92e+04,5.97e+02,1.56e+03,-1.39e+03,7.80e+02,-2.88e+02,2.82e+04
1034,2.45e+04,2.82e+03,8.33e+03,4.66e+02,3.58e+03,-4.93e+02,2.05e+04
1035,9.43e+03,-4.46e+04,-6.00e+02,-1.26e+04,3.31e+03,4.11e+02,5.46e+04
1036,-1.81e+05,-3.37e+04,-3.61e+04,-2.18e+04,2.48e+04,8.30e+02,1.57e+05
1037,-1.52e+05,1.18e+03,-5.98e+02,-6.93e+03,4.28e+03,-1.36e+03,1.53e+05
1038,-1.41e+05,-5.50e+02,-1.04e+03,-5.38e+03,2.61e+02,-2.41e+02,1.40e+05
1039,-1.31e+05,1.10e+02,1.23e+02,-5.46e+03,-6.39e+02,-2.12e+02,1.32e+05
1040,-1.23e+05,-2.91e+01,2.43e+02,-5.68e+03,-7.54e+02,-1.41e+02,1.23e+05
1041,-1.14e+05,-3.94e+01,3.01e+02,-5.77e+03,-6.99e+02,-1.05e+02,1.15e+05
1042,-1.05e+05,-4.16e+01,2.88e+02,-5.81e+03,-6.43e+02,-8.19e+01,1.06e+05
1043,-9.59e+04,-3.64e+01,2.64e+02,-5.81e+03,-6.09e+02,-6.89e+01,9.66e+04
1044,-8.68e+04,-3.14e+01,2.37e+02,-5.81e+03,-5.92e+02,-6.06e+01,8.75e+04
1045,-7.77e+04,-2.24e+01,2.06e+02,-5.81e+03,-5.87e+02,-5.46e+01,7.84e+04
1046,-6.85e+04,7.92e-01,1.66e+02,-5.83e+03,-5.96e+02,-4.98e+01,6.94e+04
1047,-5.94e+04,5.43e+01,1.07e+02,-5.92e+03,-6.34e+02,-4.52e+01,6.03e+04
1048,-5.00e+04,1.56e+02,2.51e+01,-6.16e+03,-7.19e+02,-3.80e+01,5.13e+04
1049,-4.04e+04,2.73e+02,-6.12e+01,-6.65e+03,-8.55e+02,-2.40e+01,4.21e+04
1050,-3.00e+04,2.43e+02,-5.91e+01,-7.32e+03,-9.76e+02,3.02e-01,3.27e+04
1051,-1.89e+04,-2.53e+02,1.85e+02,-7.54e+03,-9.32e+02,3.33e+01,2.30e+04
1052,-8.35e+03,-1.35e+03,7.32e+02,-5.93e+03,-5.85e+02,4.55e+01,1.32e+04
1053,-1.54e+03,-1.50e+03,1.20e+03,-1.75e+03,-1.31e+02,1.91e+02,4.10e+03
1054,-7.03e+04,-1.63e+04,-1.26e+04,-1.29e+03,1.09e+04,3.54e+02,5.91e+04
1055,-7.42e+04,-6.50e+03,-2.98e+03,-1.11e+04,2.41e+03,3.23e+01,7.22e+04
1056,-6.98e+04,-5.48e+02,-7.55e+02,-1.18e+04,7.11e+01,-6.40e+02,7.22e+04
1057,-6.56e+04,-5.33e+01,-1.69e+02,-1.26e+04,-2.81e+02,-3.45e+02,6.90e+04
1058,-6.13e+04,-2.87e+01,-4.44e+01,-1.30e+04,-2.48e+02,-1.55e+02,6.53e+04
1059,-5.70e+04,-6.15e+01,-1.14e+01,-1.32e+04,-1.73e+02,-4.12e+01,6.14e+04
1060,-5.25e+04,-6.66e+01,-6.26e+00,-1.33e+04,-1.25e+02,1.10e+01,5.73e+04
1061,-4.80e+04,-6.38e+01,-5.62e+00,-1.33e+04,-1.00e+02,3.02e+01,5.32e+04
1062,-4.34e+04,-5.61e+01,-5.71e+00,-1.33e+04,-8.85e+01,3.43e+01,4.91e+04
1063,-3.88e+04,-3.01e+01,-5.98e+00,-1.33e+04,-8.38e+01,3.21e+01,4.51e+04
1064,-3.42e+04,4.79e+01,-6.83e+00,-1.33e+04,-8.72e+01,2.75e+01,4.13e+04
1065,-2.97e+04,2.37e+02,-7.84e+00,-1.35e+04,-1.06e+02,2.20e+01,3.79e+04
1066,-2.53e+04,5.97e+02,-1.02e+01,-1.38e+04,-1.48e+02,1.64e+01,3.50e+04
1067,-2.12e+04,1.08e+03,-1.55e+01,-1.45e+04,-2.16e+02,1.15e+01,3.31e+04
1068,-1.74e+04,1.08e+03,-1.04e+02,-1.55e+04,-2.94e+02,-1.12e+01,3.22e+04
1069,-1.32e+04,-7.69e+02,-2.06e+02,-1.62e+04,-2.95e+02,-6.56e+01,3.08e+04
1070,-7.74e+03,-5.40e+03,-7.14e+01,-1.43e+04,-1.27e+02,-3.79e+01,2.57e+04
1071,-1.94e+03,-8.81e+03,8.98e+02,-6.76e+03,-2.30e+01,6.08e+02,1.46e+04
1072,-8.95e-02,6.39e-02,-2.30e-03,2.58e+03,-2.26e-02,5.02e+02,4.56e+03
1073,-2.22e-01,9.26e-02,-8.89e-03,-8.73e+03,-4.75e-02,7.88e+01,1.51e+04
1074,-4.24e-01,7.17e-03,-1.67e-02,-1.38e+04,-7.78e-02,-5.88e+02,2.39e+04
1075,-5.93e-01,-4.15e-01,-2.56e-02,-1.49e+04,-7.99e-02,-4.63e+02,2.58e+04
1076,-3.38e-01,-1.60e+00,-2.93e-02,-1.53e+04,3.68e-02,-2.08e+02,2.66e+04
1077,1.35e+00,-4.17e+00,-8.56e-03,-1.56e+04,4.59e-01,-6.17e+01,2.70e+04
1078,6.48e+00,-8.46e+00,8.32e-02,-1.57e+04,1.47e+00,7.20e+00,2.71e+04
1079,1.80e+01,-1.30e+01,3.58e-01,-1.57e+04,3.34e+00,3.28e+01,2.72e+04
1080,3.80e+01,-1.07e+01,1.09e+00,-1.57e+04,5.83e+00,3.93e+01,2.72e+04
1081,6.14e+01,1.94e+01,2.92e+00,-1.57e+04,7.21e+00,3.80e+01,2.73e+04
1082,5.96e+01,1.23e+02,7.36e+00,-1.57e+04,2.68e+00,3.34e+01,2.73e+04
1083,-5.04e+01,3.82e+02,1.66e+01,-1.57e+04,-1.68e+01,2.49e+01,2.73e+04
1084,-4.47e+02,8.97e+02,3.51e+01,-1.58e+04,-6.23e+01,8.17e+00,2.73e+04
1085,-1.45e+03,1.64e+03,4.65e+01,-1.59e+04,-1.38e+02,-2.66e+01,2.76e+04
1086,-3.34e+03,2.20e+03,5.64e+01,-1.64e+04,-2.30e+02,-7.62e+01,2.88e+04
1087,-6.24e+03,-1.54e+02,-4.83e+02,-1.81e+04,-3.69e+02,-2.54e+02,3.19e+04
1088,-6.19e+03,-9.31e+03,-8.78e+02,-1.94e+04,-2.86e+02,-6.33e+02,3.44e+04
1089,-1.88e+03,-2.29e+04,1.96e+02,-1.13e+04,2.39e+02,3.27e+02,2.96e+04
1090,7.03e+04,1.63e+04,1.26e+04,-1.29e+03,-1.09e+04,3.54e+02,5.91e+04
1091,7.42e+04,6.50e+03,2.98e+03,-1.11e+04,-2.41e+03,3.23e+01,7.22e+04
1092,6.98e+04,5.48e+02,7.55e+02,-1.18e+04,-7.12e+01,-6.40e+02,7.22e+04
1093,6.56e+04,5.28e+01,1.69e+02,-1.26e+04,2.81e+02,-3.45e+02,6.90e+04
1094,6.13e+04,2.64e+01,4.46e+01,-1.30e+04,2.48e+02,-1.55e+02,6.53e+04
1095,5.70e+04,5.55e+01,1.18e+01,-1.32e+04,1.75e+02,-4.12e+01,6.14e+04
1096,5.25e+04,5.42e+01,7.12e+00,-1.33e+04,1.28e+02,1.12e+01,5.73e+04
1097,4.80e+04,4.42e+01,6.97e+00,-1.33e+04,1.08e+02,3.08e+01,5.32e+04
1098,4.35e+04,3.83e+01,7.12e+00,-1.33e+04,1.01e+02,3.57e+01,4.92e+04
1099,3.89e+04,5.24e+01,6.09e+00,-1.33e+04,9.92e+01,3.50e+01,4.52e+04
1100,3.44e+04,1.19e+02,2.99e+00,-1.33e+04,9.17e+01,3.16e+01,4.13e+04
1101,2.97e+04,3.00e+02,-1.18e+00,-1.32e+04,6.45e+01,2.33e+01,3.74e+04
1102,2.50e+04,6.77e+02,-3.21e+00,-1.28e+04,-1.51e+00,-2.30e-01,3.32e+04
1103,1.98e+04,1.36e+03,3.60e+01,-1.23e+04,-1.18e+02,-5.83e+01,2.86e+04
1104,1.38e+04,2.09e+03,9.14e+01,-1.16e+04,-2.55e+02,-1.94e+02,2.38e+04
1105,6.27e+03,2.78e+03,6.40e+02,-1.17e+04,-3.12e+02,-2.73e+02,2.09e+04
1106,-5.74e+03,-8.56e+03,-1.90e+03,-1.79e+04,-9.61e+02,-1.11e+03,3.17e+04
1107,-4.47e+03,-4.40e+04,-2.18e+03,-1.84e+04,-1.26e+03,-3.04e+03,5.20e+04
1108,1.81e+05,3.37e+04,3.61e+04,-2.18e+04,-2.48e+04,8.30e+02,1.57e+05
1109,1.52e+05,-1.18e+03,5.98e+02,-6.93e+03,-4.28e+03,-1.36e+03,1.53e+05
1110,1.41e+05,5.50e+02,1.04e+03,-5.38e+03,-2.61e+02,-2.41e+02,1.40e+05
1111,1.31e+05,-1.10e+02,-1.23e+02,-5.46e+03,6.39e+02,-2.12e+02,1.32e+05
1112,1.23e+05,2.84e+01,-2.43e+02,-5.68e+03,7.55e+02,-1.41e+02,1.23e+05
1113,1.14e+05,3.76e+01,-3.00e+02,-5.78e+03,7.01e+02,-1.05e+02,1.15e+05
1114,1.05e+05,3.78e+01,-2.85e+02,-5.81e+03,6.48e+02,-8.18e+01,1.06e+05
1115,9.59e+04,3.02e+01,-2.60e+02,-5.83e+03,6.20e+02,-6.85e+01,9.66e+04
1116,8.68e+04,2.50e+01,-2.34e+02,-5.84e+03,6.10e+02,-5.94e+01,8.75e+04
1117,7.76e+04,2.64e+01,-2.13e+02,-5.84e+03,6.06e+02,-5.15e+01,7.84e+04
1118,6.85e+04,4.34e+01,-2.06e+02,-5.82e+03,5.90e+02,-4.36e+01,6.93e+04
1119,5.94e+04,9.28e+01,-2.20e+02,-5.73e+03,5.38e+02,-3.68e+01,6.03e+04
1120,5.04e+04,2.08e+02,-2.62e+02,-5.50e+03,4.13e+02,-3.62e+01,5.13e+04
1121,4.16e+04,3.94e+02,-3.17e+02,-4.96e+03,1.89e+02,-6.39e+01,4.25e+04
1122,3.35e+04,8.84e+02,-2.32e+02,-3.90e+03,-7.30e+01,-1.45e+02,3.39e+04
1123,2.65e+04,3.98e+02,-3.76e+01,-2.14e+03,-2.12e+01,-5.56e+02,2.66e+04
1124,2.18e+04,4.70e+03,3.86e+03,1.81e+01,1.74e+03,4.30e+02,1.78e+04
1125,7.76e+03,-6.90e+04,-1.06e+03,-2.40e+04,6.85e+03,-9.34e+03,8.61e+04
